x [mm],y [mm],z [mm],x-displacement [mm],y-displacement [mm],z-displacement [mm],vector length [mm],Exx [S],Eyy [S],Exy [S],poisson ratio -Min/Max,poisson ratio -Exx/Eyy,poisson ratio -Eyy/Exx,poisson ratio -Max/min,maximum normal strain [S],minimum normal strain [S],maximum shear strain [S],maximum shear angle [°],tresca strain [S],Von Mises strain [S],du/dx [S],du/dy [S],dv/dx [S],dv/dy [S],dw/dx [S],dw/dy [S]
1.829573,6.167421,-10.36299,1.891618e-12,0,0,1.891618e-12,0,-3.330669e-16,1.020343e-16,0,0,0,0,2.877244e-17,-3.618393e-16,1.953059e-16,60.74781,2.604079e-16,2.513666e-16,0,0,0,0,0,0
1.876863,6.167421,-10.392207,1.891618e-12,0,0,1.891618e-12,0,-2.220446e-16,-6.065006e-17,0,0,0,0,1.548612e-17,-2.375307e-16,1.265084e-16,30.676394,1.686779e-16,1.637601e-16,0,0,0,0,0,0
1.924154,6.167421,-10.425622,1.891618e-12,0,0,1.891618e-12,2.220446e-16,0,6.334415e-18,0,0,0,0,2.222252e-16,-1.805593e-19,1.112029e-16,46.632744,1.482705e-16,1.482103e-16,0,0,0,0,0,0
1.971444,6.167421,-10.455471,1.891618e-12,0,0,1.891618e-12,4.440892e-16,4.440892e-16,6.012606e-17,0,0,0,0,5.042153e-16,3.839632e-16,6.012606e-17,90,8.016808e-17,3.040911e-16,0,0,0,0,0,0
2.018735,6.167421,-10.480113,1.891618e-12,0,0,1.891618e-12,-2.220446e-16,-3.330669e-16,3.456553e-17,0,0,0,0,-2.121626e-16,-3.429489e-16,6.539315e-17,60.954788,8.719086e-17,1.99851e-16,0,0,0,0,0,0
2.066025,6.167421,-10.500215,1.891618e-12,0,0,1.891618e-12,0,2.220446e-16,1.538294e-17,0,0,0,0,2.231052e-16,-1.060642e-18,1.120829e-16,-48.94426,1.494439e-16,1.490916e-16,0,0,0,0,0,0
2.113316,6.167421,-10.517163,1.891618e-12,0,0,1.891618e-12,-1.110223e-16,4.440892e-16,8.196234e-18,0,0,0,0,4.442102e-16,-1.111433e-16,2.776767e-16,-45.845726,3.702357e-16,3.393108e-16,0,0,0,0,0,0
2.160606,6.167421,-10.531561,1.891618e-12,0,0,1.891618e-12,0,6.661338e-16,-1.958747e-17,0,0,0,0,6.667093e-16,-5.754668e-19,3.336424e-16,-43.317173,4.448565e-16,4.446648e-16,0,0,0,0,0,0
2.207896,6.167421,-10.542179,1.891618e-12,0,0,1.891618e-12,0,-2.220446e-16,4.585922e-17,0,0,0,0,9.098551e-18,-2.311432e-16,1.201209e-16,56.221855,1.601611e-16,1.572161e-16,0,0,0,0,0,0
2.255187,6.167421,-10.547672,1.891618e-12,0,0,1.891618e-12,0,6.661338e-16,-1.116976e-17,0,0,0,0,6.663211e-16,-1.872425e-19,3.332542e-16,-44.039623,4.443389e-16,4.442765e-16,0,0,0,0,0,0
2.302477,6.167421,-10.548807,1.891618e-12,0,0,1.891618e-12,-2.220446e-16,0,-6.687076e-17,0,0,0,0,1.858344e-17,-2.406281e-16,1.296057e-16,-29.469339,1.728077e-16,1.669583e-16,0,0,0,0,0,0
2.397058,6.167421,-10.56826,1.891618e-12,0,0,1.891618e-12,2.220446e-16,-2.220446e-16,2.269462e-18,0,0,0,0,2.220562e-16,-2.220562e-16,2.220562e-16,45.292793,2.960749e-16,2.564084e-16,0,0,0,0,0,0
2.444349,6.167421,-10.577873,1.891618e-12,0,0,1.891618e-12,0,-3.330669e-16,-4.459193e-17,0,0,0,0,5.866755e-18,-3.389337e-16,1.724002e-16,37.504906,2.29867e-16,2.279365e-16,0,0,0,0,0,0
2.491639,6.167421,-10.588088,1.891618e-12,0,0,1.891618e-12,2.220446e-16,0,1.060143e-17,0,0,0,0,2.225496e-16,-5.050126e-19,1.115273e-16,47.727295,1.487031e-16,1.48535e-16,0,0,0,0,0,0
2.53893,6.167421,-10.593962,1.891618e-12,0,0,1.891618e-12,2.220446e-16,-2.220446e-16,-1.681108e-17,0,0,0,0,2.226801e-16,-2.226801e-16,2.226801e-16,42.835186,2.969068e-16,2.571288e-16,0,0,0,0,0,0
2.58622,6.167421,-10.594516,1.891618e-12,0,0,1.891618e-12,2.220446e-16,2.220446e-16,-5.462828e-17,0,0,0,0,2.766729e-16,1.674163e-16,5.462828e-17,0,7.283771e-17,1.609093e-16,0,0,0,0,0,0
2.633511,6.167421,-10.59041,1.891618e-12,0,0,1.891618e-12,0,0,6.99534e-17,0,0,0,0,6.99534e-17,-6.99534e-17,6.99534e-17,90,9.327121e-17,8.077523e-17,0,0,0,0,0,0
2.680801,6.167421,-10.582262,1.891618e-12,0,0,1.891618e-12,0,-3.330669e-16,-5.079277e-18,0,0,0,0,7.744109e-20,-3.331444e-16,1.666109e-16,44.126511,2.221479e-16,2.221221e-16,0,0,0,0,0,0
2.728091,6.167421,-10.570797,1.891618e-12,0,0,1.891618e-12,4.440892e-16,2.220446e-16,1.31815e-16,0,0,0,0,5.054071e-16,1.607267e-16,1.723402e-16,69.946976,2.297869e-16,2.9817e-16,0,0,0,0,0,0
1.687701,6.12013,-10.239184,1.891618e-12,0,0,1.891618e-12,-1.110223e-16,2.220446e-16,2.411363e-17,0,0,0,0,2.237813e-16,-1.12759e-16,1.682702e-16,-49.119511,2.243603e-16,1.977946e-16,0,0,0,0,0,0
1.734992,6.12013,-10.28876,1.891618e-12,0,0,1.891618e-12,0,-3.330669e-16,3.118082e-17,0,0,0,0,2.893919e-18,-3.359608e-16,1.694274e-16,50.302483,2.259032e-16,2.249447e-16,0,0,0,0,0,0
1.782282,6.12013,-10.330598,1.891618e-12,0,0,1.891618e-12,4.440892e-16,-2.220446e-16,3.233841e-17,0,0,0,0,4.456554e-16,-2.236108e-16,3.346332e-16,47.772812,4.461775e-16,3.934259e-16,0,0,0,0,0,0
1.829573,6.12013,-10.36319,1.891618e-12,0,0,1.891618e-12,2.220446e-16,-3.330669e-16,-2.467302e-17,0,0,0,0,2.231391e-16,-3.341614e-16,2.786502e-16,42.460052,3.715337e-16,3.238788e-16,0,0,0,0,0,0
1.876863,6.12013,-10.398503,1.891618e-12,0,0,1.891618e-12,-2.220446e-16,0,-9.723661e-18,0,0,0,0,4.25e-19,-2.224696e-16,1.114473e-16,-42.497318,1.485964e-16,1.484549e-16,0,0,0,0,0,0
1.924154,6.12013,-10.431896,1.891618e-12,0,0,1.891618e-12,0,-1.110223e-16,-1.097744e-17,0,0,0,0,1.074996e-18,-1.120973e-16,5.658615e-17,39.406986,7.54482e-17,7.509243e-17,0,0,0,0,0,0
1.971444,6.12013,-10.462382,1.891618e-12,0,0,1.891618e-12,-1.110223e-16,-1.110223e-16,2.656991e-17,0,0,0,0,-8.445239e-17,-1.375922e-16,2.656991e-17,90,3.542655e-17,8.012167e-17,0,0,0,0,0,0
2.018735,6.12013,-10.487237,1.891618e-12,0,0,1.891618e-12,0,-1.110223e-16,2.382057e-17,0,0,0,0,4.895035e-18,-1.159173e-16,6.040619e-17,56.612404,8.054158e-17,7.89605e-17,0,0,0,0,0,0
2.066025,6.12013,-10.507249,1.891618e-12,0,0,1.891618e-12,0,-1.110223e-16,-4.361475e-18,0,0,0,0,1.710755e-19,-1.111934e-16,5.568223e-17,42.753769,7.424297e-17,7.418601e-17,0,0,0,0,0,0
2.113316,6.12013,-10.524074,1.891618e-12,0,0,1.891618e-12,-2.220446e-16,0,-1.837226e-17,0,0,0,0,1.509878e-18,-2.235545e-16,1.125322e-16,-40.301849,1.500429e-16,1.495422e-16,0,0,0,0,0,0
2.160606,6.12013,-10.538663,1.891618e-12,0,0,1.891618e-12,-2.220446e-16,0,4.111527e-18,0,0,0,0,7.61057e-20,-2.221207e-16,1.110984e-16,-46.060444,1.481312e-16,1.481059e-16,0,0,0,0,0,0
2.207896,6.12013,-10.549283,1.891618e-12,0,0,1.891618e-12,0,-1.110223e-16,4.832711e-17,0,0,0,0,1.80891e-17,-1.291114e-16,7.360025e-17,65.521149,9.813367e-17,9.269419e-17,0,0,0,0,0,0
2.255187,6.12013,-10.554214,1.891618e-12,0,0,1.891618e-12,2.220446e-16,0,6.46847e-18,0,0,0,0,2.222329e-16,-1.882759e-19,1.112106e-16,46.667221,1.482808e-16,1.48218e-16,0,0,0,0,0,0
2.302477,6.12013,-10.556023,1.891618e-12,0,0,1.891618e-12,-1.110223e-16,4.440892e-16,2.986699e-17,0,0,0,0,4.456915e-16,-1.126246e-16,2.791581e-16,-48.070904,3.722108e-16,3.409276e-16,0,0,0,0,0,0
2.349768,6.12013,-10.562592,1.891618e-12,0,0,1.891618e-12,-1.110223e-16,0,-2.253264e-17,0,0,0,0,4.398845e-18,-1.154211e-16,5.991e-17,-33.95359,7.988e-17,7.845483e-17,0,0,0,0,0,0
2.397058,6.12013,-10.570053,1.891618e-12,0,0,1.891618e-12,-1.110223e-16,2.220446e-16,5.455948e-17,0,0,0,0,2.307542e-16,-1.197319e-16,1.752431e-16,-54.069881,2.336574e-16,2.057095e-16,0,0,0,0,0,0
2.444349,6.12013,-10.580101,1.891618e-12,0,0,1.891618e-12,2.220446e-16,0,-7.395913e-18,0,0,0,0,2.222907e-16,-2.46072e-19,1.112684e-16,43.094395,1.483578e-16,1.482759e-16,0,0,0,0,0,0
2.491639,6.12013,-10.589622,1.891618e-12,0,0,1.891618e-12,0,-1.110223e-16,6.743092e-18,0,0,0,0,4.080512e-19,-1.114303e-16,5.59192e-17,48.462971,7.455894e-17,7.442329e-17,0,0,0,0,0,0
2.53893,6.12013,-10.593471,1.891618e-12,0,0,1.891618e-12,2.220446e-16,2.220446e-16,2.659389e-17,0,0,0,0,2.486385e-16,1.954507e-16,2.659389e-17,90,3.545852e-17,1.511813e-16,0,0,0,0,0,0
2.58622,6.12013,-10.593029,1.891618e-12,0,0,1.891618e-12,-1.110223e-16,-2.220446e-16,-1.023747e-17,0,0,0,0,-1.100862e-16,-2.229807e-16,5.644726e-17,39.77541,7.526302e-17,1.287414e-16,0,0,0,0,0,0
2.633511,6.12013,-10.588495,1.891618e-12,0,0,1.891618e-12,-1.110223e-16,2.220446e-16,2.452602e-17,0,0,0,0,2.238409e-16,-1.128186e-16,1.683298e-16,-49.188972,2.244397e-16,1.978622e-16,0,0,0,0,0,0
2.680801,6.12013,-10.580696,1.891618e-12,0,0,1.891618e-12,-4.440892e-16,0,5.100135e-17,0,0,0,0,5.781961e-18,-4.498712e-16,2.278266e-16,-51.467937,3.037688e-16,3.018599e-16,0,0,0,0,0,0
2.728091,6.12013,-10.570125,1.891618e-12,0,0,1.891618e-12,-1.110223e-16,0,6.016298e-17,0,0,0,0,2.634892e-17,-1.373712e-16,8.186008e-17,-68.651451,1.091468e-16,1.015102e-16,0,0,0,0,0,0
2.775382,6.12013,-10.556364,1.891618e-12,0,0,1.891618e-12,-1.110223e-16,0,-4.5382e-19,0,0,0,0,1.855025e-21,-1.110242e-16,5.5513e-17,-44.7658,7.401734e-17,7.401672e-17,0,0,0,0,0,0
2.822672,6.12013,-10.538598,1.891618e-12,0,0,1.891618e-12,-3.330669e-16,2.220446e-16,-6.040301e-18,0,0,0,0,2.221103e-16,-3.331326e-16,2.776215e-16,-44.376648,3.70162e-16,3.226987e-16,0,0,0,0,0,0
2.869963,6.12013,-10.517379,1.891618e-12,0,0,1.891618e-12,0,-2.220446e-16,3.945361e-17,0,0,0,0,6.801884e-18,-2.288465e-16,1.178242e-16,54.781754,1.570989e-16,1.548814e-16,0,0,0,0,0,0
2.917253,6.12013,-10.493238,1.891618e-12,0,0,1.891618e-12,-2.220446e-16,0,3.150724e-17,0,0,0,0,4.384188e-18,-2.264288e-16,1.154065e-16,-52.921761,1.538753e-16,1.524349e-16,0,0,0,0,0,0
2.964544,6.12013,-10.468047,1.891618e-12,0,0,1.891618e-12,-1.110223e-16,0,-2.504771e-18,0,0,0,0,5.648134e-20,-1.110788e-16,5.556763e-17,-43.708229,7.409018e-17,7.407136e-17,0,0,0,0,0,0
3.011834,6.12013,-10.442869,1.891618e-12,0,0,1.891618e-12,4.440892e-16,2.220446e-16,2.375893e-17,0,0,0,0,4.46603e-16,2.195308e-16,1.135361e-16,51.039593,1.513814e-16,2.578586e-16,0,0,0,0,0,0
3.059125,6.12013,-10.416405,1.891618e-12,0,0,1.891618e-12,2.220446e-16,0,7.577778e-17,0,0,0,0,2.454404e-16,-2.339579e-17,1.344181e-16,62.157658,1.792241e-16,1.719569e-16,0,0,0,0,0,0
3.106415,6.12013,-10.385836,1.891618e-12,0,0,1.891618e-12,0,2.220446e-16,-8.839481e-19,0,0,0,0,2.220481e-16,-3.518896e-21,1.110258e-16,-44.771912,1.480344e-16,1.480333e-16,0,0,0,0,0,0
3.153705,6.12013,-10.349789,1.891618e-12,0,0,1.891618e-12,0,0,-1.618726e-17,0,0,0,0,1.618726e-17,-1.618726e-17,1.618726e-17,0,2.158302e-17,1.869144e-17,0,0,0,0,0,0
3.200996,6.12013,-10.308151,1.891618e-12,0,0,1.891618e-12,0,6.661338e-16,6.344452e-17,0,0,0,0,6.721226e-16,-5.988799e-18,3.390557e-16,-50.392414,4.520743e-16,4.500913e-16,0,0,0,0,0,0
3.248286,6.12013,-10.255791,1.891618e-12,0,0,1.891618e-12,-1.110223e-16,6.661338e-16,9.929196e-18,0,0,0,0,6.662607e-16,-1.111491e-16,3.887049e-16,-45.731869,5.182732e-16,4.854833e-16,0,0,0,0,0,0
1.49854,6.07284,-9.953528,1.891618e-12,0,0,1.891618e-12,2.220446e-16,-2.220446e-16,-9.698263e-17,0,0,0,0,2.423003e-16,-2.423003e-16,2.423003e-16,33.202847,3.230671e-16,2.797843e-16,0,0,0,0,0,0
1.54583,6.07284,-10.023211,1.891618e-12,0,0,1.891618e-12,0,-3.330669e-16,2.24236e-17,0,0,0,0,1.502879e-18,-3.345698e-16,1.680363e-16,48.834354,2.240484e-16,2.235492e-16,0,0,0,0,0,0
1.593121,6.07284,-10.112346,1.891618e-12,0,0,1.891618e-12,2.220446e-16,0,1.137385e-16,0,0,0,0,2.699638e-16,-4.791921e-17,1.589415e-16,67.846191,2.11922e-16,1.978924e-16,0,0,0,0,0,0
1.640411,6.07284,-10.180824,1.891618e-12,0,0,1.891618e-12,-1.110223e-16,2.220446e-16,1.112779e-17,0,0,0,0,2.22416e-16,-1.113937e-16,1.669048e-16,-46.911415,2.225397e-16,1.96246e-16,0,0,0,0,0,0
1.687701,6.07284,-10.239597,1.891618e-12,0,0,1.891618e-12,-2.220446e-16,-1.110223e-16,5.467169e-17,0,0,0,0,-8.862016e-17,-2.444467e-16,7.791329e-17,-67.281738,1.038844e-16,1.428983e-16,0,0,0,0,0,0
1.734992,6.07284,-10.289715,1.891618e-12,0,0,1.891618e-12,0,0,-1.063442e-17,0,0,0,0,1.063442e-17,-1.063442e-17,1.063442e-17,0,1.417923e-17,1.227957e-17,0,0,0,0,0,0
1.782282,6.07284,-10.332416,1.891618e-12,0,0,1.891618e-12,0,2.220446e-16,-2.666553e-17,0,0,0,0,2.25202e-16,-3.157389e-18,1.141797e-16,-38.247211,1.522396e-16,1.511981e-16,0,0,0,0,0,0
1.829573,6.07284,-10.370209,1.891618e-12,0,0,1.891618e-12,2.220446e-16,2.220446e-16,2.01874e-18,0,0,0,0,2.240633e-16,2.200259e-16,2.01874e-18,90,2.691654e-18,1.480481e-16,0,0,0,0,0,0
1.876863,6.07284,-10.405329,1.891618e-12,0,0,1.891618e-12,0,0,-2.765756e-17,0,0,0,0,2.765756e-17,-2.765756e-17,2.765756e-17,0,3.687675e-17,3.193621e-17,0,0,0,0,0,0
1.924154,6.07284,-10.439307,1.891618e-12,0,0,1.891618e-12,0,-2.220446e-16,2.974691e-17,0,0,0,0,3.916074e-18,-2.259607e-16,1.149384e-16,52.499657,1.532512e-16,1.519626e-16,0,0,0,0,0,0
1.971444,6.07284,-10.469866,1.891618e-12,0,0,1.891618e-12,-2.220446e-16,4.440892e-16,-5.81511e-18,0,0,0,0,4.4414e-16,-2.220954e-16,3.331177e-16,-44.499878,4.441569e-16,3.917074e-16,0,0,0,0,0,0
2.018735,6.07284,-10.495385,1.891618e-12,0,0,1.891618e-12,0,2.220446e-16,1.362324e-17,0,0,0,0,2.228773e-16,-8.327123e-19,1.11855e-16,-48.497818,1.4914e-16,1.488632e-16,0,0,0,0,0,0
2.066025,6.07284,-10.515832,1.891618e-12,0,0,1.891618e-12,-2.220446e-16,-1.110223e-16,-7.944693e-18,0,0,0,0,-1.104567e-16,-2.226102e-16,5.607678e-17,-40.927601,7.476905e-17,1.285253e-16,0,0,0,0,0,0
2.113316,6.07284,-10.53289,1.891618e-12,0,0,1.891618e-12,-3.330669e-16,-2.220446e-16,-2.89322e-18,0,0,0,0,-2.219693e-16,-3.331422e-16,5.55865e-17,-43.508232,7.411533e-17,1.958534e-16,0,0,0,0,0,0
2.160606,6.07284,-10.547315,1.891618e-12,0,0,1.891618e-12,-1.110223e-16,0,-2.766349e-17,0,0,0,0,6.511074e-18,-1.175334e-16,6.202223e-17,-31.755518,8.26963e-17,8.061364e-17,0,0,0,0,0,0
2.207896,6.07284,-10.557235,1.891618e-12,0,0,1.891618e-12,-1.110223e-16,2.220446e-16,2.495688e-17,0,0,0,0,2.239043e-16,-1.12882e-16,1.683931e-16,-49.26149,2.245241e-16,1.97934e-16,0,0,0,0,0,0
2.255187,6.07284,-10.561901,1.891618e-12,0,0,1.891618e-12,-1.110223e-16,-4.440892e-16,-1.209364e-17,0,0,0,0,-1.105838e-16,-4.445278e-16,1.66972e-16,42.923237,2.226293e-16,2.672295e-16,0,0,0,0,0,0
2.302477,6.07284,-10.564507,1.891618e-12,0,0,1.891618e-12,2.220446e-16,-2.220446e-16,-4.13769e-17,0,0,0,0,2.258669e-16,-2.258669e-16,2.258669e-16,39.722145,3.011559e-16,2.608086e-16,0,0,0,0,0,0
2.349768,6.07284,-10.568026,1.891618e-12,0,0,1.891618e-12,-1.110223e-16,2.220446e-16,-4.802732e-17,0,0,0,0,2.288317e-16,-1.178094e-16,1.733206e-16,-36.956367,2.310941e-16,2.035262e-16,0,0,0,0,0,0
2.397058,6.07284,-10.575275,1.891618e-12,0,0,1.891618e-12,2.220446e-16,0,-3.388986e-18,0,0,0,0,2.220963e-16,-5.171281e-20,1.11074e-16,44.125786,1.480987e-16,1.480814e-16,0,0,0,0,0,0
2.444349,6.07284,-10.583785,1.891618e-12,0,0,1.891618e-12,-1.110223e-16,0,-3.497991e-17,0,0,0,0,1.010197e-17,-1.211243e-16,6.561312e-17,-28.891624,8.748416e-17,8.431879e-17,0,0,0,0,0,0
2.491639,6.07284,-10.589538,1.891618e-12,0,0,1.891618e-12,0,-1.110223e-16,-2.093621e-17,0,0,0,0,3.81686e-18,-1.148392e-16,5.932801e-17,34.667934,7.910402e-17,7.786292e-17,0,0,0,0,0,0
2.53893,6.07284,-10.591583,1.891618e-12,0,0,1.891618e-12,0,2.220446e-16,4.871884e-18,0,0,0,0,2.221514e-16,-1.068427e-19,1.111291e-16,-46.256321,1.481722e-16,1.481366e-16,0,0,0,0,0,0
2.58622,6.07284,-10.590203,1.891618e-12,0,0,1.891618e-12,-4.440892e-16,-1.110223e-16,-5.2265e-19,0,0,0,0,-1.110215e-16,-4.4409e-16,1.665343e-16,-44.910091,2.220457e-16,2.668651e-16,0,0,0,0,0,0
2.633511,6.07284,-10.585504,1.891618e-12,0,0,1.891618e-12,2.220446e-16,0,2.098335e-17,0,0,0,0,2.240101e-16,-1.96554e-18,1.129878e-16,50.35136,1.506505e-16,1.499996e-16,0,0,0,0,0,0
2.680801,6.07284,-10.578396,1.891618e-12,0,0,1.891618e-12,2.220446e-16,-4.440892e-16,4.331274e-17,0,0,0,0,2.248491e-16,-4.468936e-16,3.358714e-16,48.704643,4.478284e-16,3.948303e-16,0,0,0,0,0,0
2.728091,6.07284,-10.568783,1.891618e-12,0,0,1.891618e-12,2.220446e-16,-1.110223e-16,1.132539e-17,0,0,0,0,2.224293e-16,-1.11407e-16,1.669181e-16,46.945251,2.225575e-16,1.962611e-16,0,0,0,0,0,0
2.775382,6.07284,-10.556179,1.891618e-12,0,0,1.891618e-12,-1.110223e-16,-1.110223e-16,-5.598417e-17,0,0,0,0,-5.503813e-17,-1.670065e-16,5.598417e-17,0,7.464556e-17,9.82709e-17,0,0,0,0,0,0
2.822672,6.07284,-10.539521,1.891618e-12,0,0,1.891618e-12,0,2.220446e-16,-1.25759e-17,0,0,0,0,2.227546e-16,-7.099884e-19,1.117323e-16,-41.768723,1.489764e-16,1.487403e-16,0,0,0,0,0,0
2.869963,6.07284,-10.518553,1.891618e-12,0,0,1.891618e-12,-1.110223e-16,4.440892e-16,2.424383e-17,0,0,0,0,4.45146e-16,-1.120791e-16,2.786126e-16,-47.495991,3.714834e-16,3.40332e-16,0,0,0,0,0,0
2.917253,6.07284,-10.493882,1.891618e-12,0,0,1.891618e-12,0,-4.440892e-16,-7.139158e-17,0,0,0,0,1.119468e-17,-4.552839e-16,2.332393e-16,36.088203,3.109857e-16,3.073221e-16,0,0,0,0,0,0
2.964544,6.07284,-10.467565,1.891618e-12,0,0,1.891618e-12,0,-4.440892e-16,-1.705591e-17,0,0,0,0,6.540939e-19,-4.447433e-16,2.226987e-16,42.803783,2.969316e-16,2.967138e-16,0,0,0,0,0,0
3.011834,6.07284,-10.441173,1.891618e-12,0,0,1.891618e-12,-1.110223e-16,2.220446e-16,3.042165e-17,0,0,0,0,2.248005e-16,-1.137782e-16,1.692893e-16,-50.176205,2.257191e-16,1.989507e-16,0,0,0,0,0,0
3.059125,6.07284,-10.413933,1.891618e-12,0,0,1.891618e-12,-2.220446e-16,-5.551115e-16,-3.380648e-17,0,0,0,0,-2.186479e-16,-5.585083e-16,1.699302e-16,39.262413,2.265736e-16,3.249764e-16,0,0,0,0,0,0
3.106415,6.07284,-10.383136,1.891618e-12,0,0,1.891618e-12,0,2.220446e-16,1.118457e-17,0,0,0,0,2.226066e-16,-5.619543e-19,1.115843e-16,-47.876331,1.48779e-16,1.48592e-16,0,0,0,0,0,0
3.153705,6.07284,-10.347017,1.891618e-12,0,0,1.891618e-12,4.440892e-16,-1.110223e-16,-4.835643e-19,0,0,0,0,4.440896e-16,-1.110227e-16,2.775562e-16,44.950089,3.700749e-16,3.391792e-16,0,0,0,0,0,0
3.200996,6.07284,-10.305052,1.891618e-12,0,0,1.891618e-12,-2.220446e-16,2.220446e-16,-3.342112e-17,0,0,0,0,2.245457e-16,-2.245457e-16,2.245457e-16,-40.720181,2.993943e-16,2.592831e-16,0,0,0,0,0,0
3.248286,6.07284,-10.255446,1.891618e-12,0,0,1.891618e-12,2.220446e-16,2.220446e-16,-1.358406e-17,0,0,0,0,2.356287e-16,2.084605e-16,1.358406e-17,0,1.811209e-17,1.488585e-16,0,0,0,0,0,0
3.295577,6.07284,-10.191366,1.891618e-12,0,0,1.891618e-12,0,0,1.413932e-17,0,0,0,0,1.413932e-17,-1.413932e-17,1.413932e-17,90,1.885243e-17,1.632668e-17,0,0,0,0,0,0
1.451249,6.02555,-9.864622,1.891618e-12,0,0,1.891618e-12,-5.551115e-16,0,2.235497e-16,0,0,0,0,7.883117e-17,-6.339427e-16,3.563869e-16,-64.424377,4.751826e-16,4.512068e-16,0,0,0,0,0,0
1.49854,6.02555,-9.945783,1.891618e-12,0,0,1.891618e-12,-1.110223e-16,-1.110223e-16,1.935409e-17,0,0,0,0,-9.166822e-17,-1.303764e-16,1.935409e-17,90,2.580545e-17,7.731521e-17,0,0,0,0,0,0
1.54583,6.02555,-10.011147,1.891618e-12,0,0,1.891618e-12,2.220446e-16,2.220446e-16,1.134924e-17,0,0,0,0,2.333938e-16,2.106954e-16,1.134924e-17,90,1.513232e-17,1.486087e-16,0,0,0,0,0,0
1.593121,6.02555,-10.097512,1.891618e-12,0,0,1.891618e-12,-1.110223e-16,0,9.472615e-18,0,0,0,0,8.024204e-19,-1.118247e-16,5.631357e-17,-49.841938,7.508476e-17,7.481872e-17,0,0,0,0,0,0
1.640411,6.02555,-10.173122,1.891618e-12,0,0,1.891618e-12,-1.110223e-16,4.440892e-16,5.748835e-18,0,0,0,0,4.441487e-16,-1.110818e-16,2.776153e-16,-45.593281,3.701537e-16,3.392437e-16,0,0,0,0,0,0
1.687701,6.02555,-10.235895,1.891618e-12,0,0,1.891618e-12,2.220446e-16,-2.220446e-16,2.388939e-17,0,0,0,0,2.23326e-16,-2.23326e-16,2.23326e-16,48.070366,2.97768e-16,2.578747e-16,0,0,0,0,0,0
1.734992,6.02555,-10.289012,1.891618e-12,0,0,1.891618e-12,0,0,2.847972e-17,0,0,0,0,2.847972e-17,-2.847972e-17,2.847972e-17,90,3.797295e-17,3.288554e-17,0,0,0,0,0,0
1.782282,6.02555,-10.333709,1.891618e-12,0,0,1.891618e-12,2.220446e-16,0,-3.446707e-17,0,0,0,0,2.272717e-16,-5.227129e-18,1.162494e-16,36.376476,1.549992e-16,1.532866e-16,0,0,0,0,0,0
1.829573,6.02555,-10.372315,1.891618e-12,0,0,1.891618e-12,0,-1.110223e-16,2.347377e-17,0,0,0,0,4.759122e-18,-1.157814e-16,6.027027e-17,56.460922,8.036036e-17,7.882189e-17,0,0,0,0,0,0
1.876863,6.02555,-10.408299,1.891618e-12,0,0,1.891618e-12,0,-2.220446e-16,-1.122642e-17,0,0,0,0,5.661567e-19,-2.226108e-16,1.115885e-16,42.112976,1.487846e-16,1.485962e-16,0,0,0,0,0,0
1.924154,6.02555,-10.442552,1.891618e-12,0,0,1.891618e-12,-2.220446e-16,-2.220446e-16,-2.395228e-17,0,0,0,0,-1.980923e-16,-2.459969e-16,2.395228e-17,0,3.193638e-17,1.505913e-16,0,0,0,0,0,0
1.971444,6.02555,-10.473366,1.891618e-12,0,0,1.891618e-12,2.220446e-16,0,-2.587628e-17,0,0,0,0,2.250203e-16,-2.975652e-18,1.13998e-16,38.440067,1.519973e-16,1.510152e-16,0,0,0,0,0,0
2.018735,6.02555,-10.499571,1.891618e-12,0,0,1.891618e-12,2.220446e-16,-2.220446e-16,-4.753449e-17,0,0,0,0,2.270756e-16,-2.270756e-16,2.270756e-16,38.958359,3.027675e-16,2.622043e-16,0,0,0,0,0,0
2.066025,6.02555,-10.520803,1.891618e-12,0,0,1.891618e-12,0,2.220446e-16,9.213736e-18,0,0,0,0,2.224263e-16,-3.816677e-19,1.11404e-16,-47.372051,1.485386e-16,1.484116e-16,0,0,0,0,0,0
2.113316,6.02555,-10.538401,1.891618e-12,0,0,1.891618e-12,2.220446e-16,2.220446e-16,1.690349e-17,0,0,0,0,2.389481e-16,2.051411e-16,1.690349e-17,90,2.253798e-17,1.49311e-16,0,0,0,0,0,0
2.160606,6.02555,-10.552779,1.891618e-12,0,0,1.891618e-12,0,2.220446e-16,-1.616901e-17,0,0,0,0,2.232158e-16,-1.171229e-18,1.121935e-16,-40.856922,1.495914e-16,1.492025e-16,0,0,0,0,0,0
2.207896,6.02555,-10.562331,1.891618e-12,0,0,1.891618e-12,0,-2.220446e-16,5.369331e-18,0,0,0,0,1.297616e-19,-2.221744e-16,1.111521e-16,46.384407,1.482027e-16,1.481595e-16,0,0,0,0,0,0
2.255187,6.02555,-10.566781,1.891618e-12,0,0,1.891618e-12,2.220446e-16,0,-9.794283e-18,0,0,0,0,2.224758e-16,-4.311838e-19,1.114535e-16,42.479237,1.486047e-16,1.484611e-16,0,0,0,0,0,0
2.302477,6.02555,-10.569403,1.891618e-12,0,0,1.891618e-12,0,-1.110223e-16,-5.240318e-17,0,0,0,0,2.082744e-17,-1.318497e-16,7.633859e-17,23.324842,1.017848e-16,9.560156e-17,0,0,0,0,0,0
2.349768,6.02555,-10.572826,1.891618e-12,0,0,1.891618e-12,2.220446e-16,2.220446e-16,1.273868e-17,0,0,0,0,2.347833e-16,2.093059e-16,1.273868e-17,90,1.698491e-17,1.487588e-16,0,0,0,0,0,0
2.397058,6.02555,-10.578636,1.891618e-12,0,0,1.891618e-12,2.220446e-16,2.220446e-16,2.054776e-17,0,0,0,0,2.425924e-16,2.014968e-16,2.054776e-17,90,2.739701e-17,1.499191e-16,0,0,0,0,0,0
2.444349,6.02555,-10.584934,1.891618e-12,0,0,1.891618e-12,0,0,-7.316531e-18,0,0,0,0,7.316531e-18,-7.316531e-18,7.316531e-18,0,9.755375e-18,8.448403e-18,0,0,0,0,0,0
2.491639,6.02555,-10.588865,1.891618e-12,0,0,1.891618e-12,-1.110223e-16,2.220446e-16,-1.535975e-17,0,0,0,0,2.227514e-16,-1.117291e-16,1.672403e-16,-42.365196,2.22987e-16,1.966265e-16,0,0,0,0,0,0
2.53893,6.02555,-10.590417,1.891618e-12,0,0,1.891618e-12,-2.220446e-16,0,-1.174482e-17,0,0,0,0,6.195022e-19,-2.226641e-16,1.116418e-16,-41.980629,1.488557e-16,1.486497e-16,0,0,0,0,0,0
2.58622,6.02555,-10.589179,1.891618e-12,0,0,1.891618e-12,2.220446e-16,-2.220446e-16,3.750936e-17,0,0,0,0,2.251905e-16,-2.251905e-16,2.251905e-16,49.794144,3.00254e-16,2.600276e-16,0,0,0,0,0,0
2.633511,6.02555,-10.584759,1.891618e-12,0,0,1.891618e-12,0,0,2.443816e-17,0,0,0,0,2.443816e-17,-2.443816e-17,2.443816e-17,90,3.258422e-17,2.821876e-17,0,0,0,0,0,0
2.680801,6.02555,-10.578157,1.891618e-12,0,0,1.891618e-12,-1.110223e-16,-1.110223e-16,-6.320612e-18,0,0,0,0,-1.047017e-16,-1.173429e-16,6.320612e-18,0,8.427483e-18,7.437383e-17,0,0,0,0,0,0
2.728091,6.02555,-10.568806,1.891618e-12,0,0,1.891618e-12,2.220446e-16,2.220446e-16,-2.17795e-17,0,0,0,0,2.438241e-16,2.002651e-16,2.17795e-17,0,2.903933e-17,1.501508e-16,0,0,0,0,0,0
2.775382,6.02555,-10.556674,1.891618e-12,0,0,1.891618e-12,0,-1.110223e-16,1.399312e-18,0,0,0,0,1.763396e-20,-1.110399e-16,5.552879e-17,45.721996,7.403838e-17,7.403251e-17,0,0,0,0,0,0
2.822672,6.02555,-10.540732,1.891618e-12,0,0,1.891618e-12,2.220446e-16,2.220446e-16,2.804003e-17,0,0,0,0,2.500846e-16,1.940046e-16,2.804003e-17,90,3.73867e-17,1.515293e-16,0,0,0,0,0,0
2.869963,6.02555,-10.520209,1.891618e-12,0,0,1.891618e-12,-1.110223e-16,-1.110223e-16,-4.189057e-18,0,0,0,0,-1.068332e-16,-1.152114e-16,4.189057e-18,0,5.585409e-18,7.417276e-17,0,0,0,0,0,0
2.917253,6.02555,-10.495268,1.891618e-12,0,0,1.891618e-12,-1.110223e-16,2.220446e-16,-2.869225e-17,0,0,0,0,2.244982e-16,-1.134759e-16,1.689871e-16,-40.112206,2.253161e-16,1.986078e-16,0,0,0,0,0,0
2.964544,6.02555,-10.468028,1.891618e-12,0,0,1.891618e-12,0,0,-4.074634e-17,0,0,0,0,4.074634e-17,-4.074634e-17,4.074634e-17,0,5.432845e-17,4.704982e-17,0,0,0,0,0,0
3.011834,6.02555,-10.440321,1.891618e-12,0,0,1.891618e-12,2.220446e-16,0,1.780368e-17,0,0,0,0,2.234631e-16,-1.41845e-18,1.124408e-16,49.555229,1.49921e-16,1.494504e-16,0,0,0,0,0,0
3.059125,6.02555,-10.412345,1.891618e-12,0,0,1.891618e-12,4.440892e-16,-2.220446e-16,3.17278e-17,0,0,0,0,4.45597e-16,-2.235524e-16,3.345747e-16,47.720776,4.460996e-16,3.933597e-16,0,0,0,0,0,0
3.106415,6.02555,-10.38132,1.891618e-12,0,0,1.891618e-12,-2.220446e-16,0,6.532278e-18,0,0,0,0,1.920055e-19,-2.222366e-16,1.112143e-16,-46.683632,1.482857e-16,1.482218e-16,0,0,0,0,0,0
3.153705,6.02555,-10.345228,1.891618e-12,0,0,1.891618e-12,0,0,-1.077408e-17,0,0,0,0,1.077408e-17,-1.077408e-17,1.077408e-17,0,1.436545e-17,1.244084e-17,0,0,0,0,0,0
3.200996,6.02555,-10.302937,1.891618e-12,0,0,1.891618e-12,4.440892e-16,2.220446e-16,3.300676e-17,0,0,0,0,4.488918e-16,2.17242e-16,1.158249e-16,53.278568,1.544332e-16,2.592123e-16,0,0,0,0,0,0
3.248286,6.02555,-10.253601,1.891618e-12,0,0,1.891618e-12,0,0,-1.540084e-17,0,0,0,0,1.540084e-17,-1.540084e-17,1.540084e-17,0,2.053445e-17,1.778336e-17,0,0,0,0,0,0
3.295577,6.02555,-10.194427,1.891618e-12,0,0,1.891618e-12,-2.220446e-16,-4.440892e-16,-1.497262e-16,0,0,0,0,-1.466698e-16,-5.194641e-16,1.863972e-16,18.278503,2.485296e-16,3.092394e-16,0,0,0,0,0,0
1.451249,5.978259,-9.862801,1.891618e-12,0,0,1.891618e-12,2.220446e-16,2.220446e-16,3.686813e-17,0,0,0,0,2.589127e-16,1.851765e-16,3.686813e-17,90,4.915751e-17,1.540297e-16,0,0,0,0,0,0
1.49854,5.978259,-9.940904,1.891618e-12,0,0,1.891618e-12,2.220446e-16,-1.110223e-16,2.963501e-17,0,0,0,0,2.246609e-16,-1.136386e-16,1.691497e-16,50.045147,2.25533e-16,1.987923e-16,0,0,0,0,0,0
1.54583,5.978259,-10.005524,1.891618e-12,0,0,1.891618e-12,-1.110223e-16,0,7.93598e-17,0,0,0,0,4.133649e-17,-1.523588e-16,9.684764e-17,-72.513855,1.291302e-16,1.177943e-16,0,0,0,0,0,0
1.593121,5.978259,-10.089466,1.891618e-12,0,0,1.891618e-12,-1.110223e-16,0,2.030313e-17,0,0,0,0,3.596419e-18,-1.146187e-16,5.910757e-17,-55.04496,7.88101e-17,7.763906e-17,0,0,0,0,0,0
1.640411,5.978259,-10.167885,1.891618e-12,0,0,1.891618e-12,2.220446e-16,-1.110223e-16,6.159614e-17,0,0,0,0,2.330709e-16,-1.220486e-16,1.775598e-16,55.149025,2.367464e-16,2.083415e-16,0,0,0,0,0,0
1.687701,5.978259,-10.232621,1.891618e-12,0,0,1.891618e-12,2.220446e-16,2.220446e-16,-3.807849e-17,0,0,0,0,2.601231e-16,1.839661e-16,3.807849e-17,0,5.077131e-17,1.544218e-16,0,0,0,0,0,0
1.734992,5.978259,-10.287138,1.891618e-12,0,0,1.891618e-12,0,-1.110223e-16,2.211447e-17,0,0,0,0,4.242824e-18,-1.152651e-16,5.975397e-17,55.860645,7.967197e-17,7.829602e-17,0,0,0,0,0,0
1.782282,5.978259,-10.33283,1.891618e-12,0,0,1.891618e-12,0,0,2.645831e-17,0,0,0,0,2.645831e-17,-2.645831e-17,2.645831e-17,90,3.527775e-17,3.055143e-17,0,0,0,0,0,0
1.829573,5.978259,-10.372293,1.891618e-12,0,0,1.891618e-12,0,0,4.066901e-17,0,0,0,0,4.066901e-17,-4.066901e-17,4.066901e-17,90,5.422535e-17,4.696053e-17,0,0,0,0,0,0
1.876863,5.978259,-10.40882,1.891618e-12,0,0,1.891618e-12,0,2.220446e-16,-1.063366e-17,0,0,0,0,2.225527e-16,-5.080808e-19,1.115304e-16,-42.264465,1.487072e-16,1.485381e-16,0,0,0,0,0,0
1.924154,5.978259,-10.443478,1.891618e-12,0,0,1.891618e-12,4.440892e-16,2.220446e-16,-2.618665e-17,0,0,0,0,4.471357e-16,2.189981e-16,1.140688e-16,38.364155,1.520917e-16,2.581719e-16,0,0,0,0,0,0
1.971444,5.978259,-10.474669,1.891618e-12,0,0,1.891618e-12,2.220446e-16,2.220446e-16,2.185498e-17,0,0,0,0,2.438996e-16,2.001896e-16,2.185498e-17,90,2.913997e-17,1.501654e-16,0,0,0,0,0,0
2.018735,5.978259,-10.50117,1.891618e-12,0,0,1.891618e-12,0,-1.110223e-16,2.352653e-17,0,0,0,0,4.779689e-18,-1.15802e-16,6.029084e-17,56.484009,8.038779e-17,7.884287e-17,0,0,0,0,0,0
2.066025,5.978259,-10.523122,1.891618e-12,0,0,1.891618e-12,2.220446e-16,-1.110223e-16,3.238729e-17,0,0,0,0,2.251647e-16,-1.141424e-16,1.696536e-16,50.502728,2.262047e-16,1.99364e-16,0,0,0,0,0,0
2.113316,5.978259,-10.541248,1.891618e-12,0,0,1.891618e-12,2.220446e-16,2.220446e-16,1.236644e-17,0,0,0,0,2.34411e-16,2.096782e-16,1.236644e-17,90,1.648859e-17,1.487169e-16,0,0,0,0,0,0
2.160606,5.978259,-10.55564,1.891618e-12,0,0,1.891618e-12,-2.220446e-16,-1.110223e-16,-3.058956e-17,0,0,0,0,-1.03152e-16,-2.299149e-16,6.338146e-17,-30.571463,8.450861e-17,1.329746e-16,0,0,0,0,0,0
2.207896,5.978259,-10.565501,1.891618e-12,0,0,1.891618e-12,2.220446e-16,0,-2.720375e-17,0,0,0,0,2.253289e-16,-3.284283e-18,1.143066e-16,38.116051,1.524088e-16,1.513259e-16,0,0,0,0,0,0
2.255187,5.978259,-10.570435,1.891618e-12,0,0,1.891618e-12,-2.220446e-16,2.220446e-16,1.676628e-19,0,0,0,0,2.220447e-16,-2.220447e-16,2.220447e-16,-45.021633,2.960596e-16,2.563951e-16,0,0,0,0,0,0
2.302477,5.978259,-10.573412,1.891618e-12,0,0,1.891618e-12,2.220446e-16,0,-2.737489e-18,0,0,0,0,2.220784e-16,-3.374415e-20,1.110561e-16,44.29377,1.480747e-16,1.480635e-16,0,0,0,0,0,0
2.349768,5.978259,-10.577031,1.891618e-12,0,0,1.891618e-12,2.220446e-16,0,-6.589898e-18,0,0,0,0,2.2224e-16,-1.954048e-19,1.112177e-16,43.301552,1.482903e-16,1.482252e-16,0,0,0,0,0,0
2.397058,5.978259,-10.582038,1.891618e-12,0,0,1.891618e-12,-1.110223e-16,0,1.336835e-17,0,0,0,0,1.587015e-18,-1.126093e-16,5.709817e-17,-51.770149,7.613089e-17,7.560744e-17,0,0,0,0,0,0
2.444349,5.978259,-10.586806,1.891618e-12,0,0,1.891618e-12,-4.440892e-16,2.220446e-16,4.835808e-17,0,0,0,0,2.255369e-16,-4.475815e-16,3.365592e-16,-49.130531,4.487456e-16,3.956104e-16,0,0,0,0,0,0
2.491639,5.978259,-10.589283,1.891618e-12,0,0,1.891618e-12,-2.220446e-16,-1.110223e-16,1.49405e-17,0,0,0,0,-1.090469e-16,-2.2402e-16,5.748658e-17,-52.531933,7.664877e-17,1.293531e-16,0,0,0,0,0,0
2.53893,5.978259,-10.589276,1.891618e-12,0,0,1.891618e-12,2.220446e-16,-4.440892e-16,-5.321487e-17,0,0,0,0,2.262689e-16,-4.483136e-16,3.372912e-16,40.46122,4.497217e-16,3.964409e-16,0,0,0,0,0,0
2.58622,5.978259,-10.587745,1.891618e-12,0,0,1.891618e-12,-1.110223e-16,0,3.02374e-17,0,0,0,0,7.701098e-18,-1.187234e-16,6.321225e-17,-59.288757,8.4283e-17,8.183684e-17,0,0,0,0,0,0
2.633511,5.978259,-10.584386,1.891618e-12,0,0,1.891618e-12,-1.110223e-16,2.220446e-16,-8.645334e-18,0,0,0,0,2.222689e-16,-1.112466e-16,1.667577e-16,-43.514122,2.223436e-16,1.960792e-16,0,0,0,0,0,0
2.680801,5.978259,-10.579032,1.891618e-12,0,0,1.891618e-12,2.220446e-16,2.220446e-16,7.407428e-18,0,0,0,0,2.29452e-16,2.146372e-16,7.407428e-18,90,9.87657e-18,1.482766e-16,0,0,0,0,0,0
2.728091,5.978259,-10.570382,1.891618e-12,0,0,1.891618e-12,-1.110223e-16,0,-2.582286e-17,0,0,0,0,5.712276e-18,-1.167346e-16,6.122343e-17,-32.526466,8.163124e-17,7.979533e-17,0,0,0,0,0,0
2.775382,5.978259,-10.558488,1.891618e-12,0,0,1.891618e-12,4.440892e-16,0,-8.050471e-18,0,0,0,0,4.442351e-16,-1.458914e-19,2.221905e-16,43.961796,2.96254e-16,2.962054e-16,0,0,0,0,0,0
2.822672,5.978259,-10.542708,1.891618e-12,0,0,1.891618e-12,-1.110223e-16,0,4.367389e-17,0,0,0,0,1.512097e-17,-1.261433e-16,7.063212e-17,-64.097107,9.417616e-17,8.956233e-17,0,0,0,0,0,0
2.869963,5.978259,-10.522559,1.891618e-12,0,0,1.891618e-12,-1.110223e-16,-2.220446e-16,-3.879028e-18,0,0,0,0,-1.108869e-16,-2.2218e-16,5.564652e-17,43.001381,7.419535e-17,1.282757e-16,0,0,0,0,0,0
2.917253,5.978259,-10.497719,1.891618e-12,0,0,1.891618e-12,2.220446e-16,2.220446e-16,7.773467e-18,0,0,0,0,2.298181e-16,2.142711e-16,7.773467e-18,90,1.036462e-17,1.483016e-16,0,0,0,0,0,0
2.964544,5.978259,-10.469944,1.891618e-12,0,0,1.891618e-12,0,2.220446e-16,-1.656099e-17,0,0,0,0,2.23273e-16,-1.228391e-18,1.122507e-16,-40.757927,1.496676e-16,1.492598e-16,0,0,0,0,0,0
3.011834,5.978259,-10.441117,1.891618e-12,0,0,1.891618e-12,2.220446e-16,4.440892e-16,-4.905451e-17,0,0,0,0,4.544436e-16,2.116902e-16,1.213767e-16,-33.081032,1.618356e-16,2.625774e-16,0,0,0,0,0,0
3.059125,5.978259,-10.412065,1.891618e-12,0,0,1.891618e-12,-2.220446e-16,2.220446e-16,6.830732e-20,0,0,0,0,2.220446e-16,-2.220446e-16,2.220446e-16,-45.008812,2.960595e-16,2.56395e-16,0,0,0,0,0,0
3.106415,5.978259,-10.380428,1.891618e-12,0,0,1.891618e-12,0,2.220446e-16,-4.66462e-17,0,0,0,0,2.314458e-16,-9.4012e-18,1.204235e-16,-33.605103,1.605647e-16,1.575245e-16,0,0,0,0,0,0
3.153705,5.978259,-10.344246,1.891618e-12,0,0,1.891618e-12,0,-1.110223e-16,-3.921194e-17,0,0,0,0,1.245255e-17,-1.234749e-16,6.79637e-17,27.381699,9.061826e-17,8.676579e-17,0,0,0,0,0,0
3.200996,5.978259,-10.302033,1.891618e-12,0,0,1.891618e-12,-2.220446e-16,-1.110223e-16,4.089293e-17,0,0,0,0,-9.758623e-17,-2.354807e-16,6.894722e-17,-63.188824,9.192963e-17,1.366171e-16,0,0,0,0,0,0
3.248286,5.978259,-10.253668,1.891618e-12,0,0,1.891618e-12,2.220446e-16,-1.110223e-16,1.735688e-17,0,0,0,0,2.229467e-16,-1.119244e-16,1.674355e-16,47.975071,2.232474e-16,1.968479e-16,0,0,0,0,0,0
3.295577,5.978259,-10.198972,1.891618e-12,0,0,1.891618e-12,-2.220446e-16,0,1.671637e-17,0,0,0,0,1.25142e-18,-2.23296e-16,1.122737e-16,-49.281288,1.496983e-16,1.492829e-16,0,0,0,0,0,0
3.342867,5.978259,-10.124891,1.891618e-12,0,0,1.891618e-12,0,-2.220446e-16,7.294898e-18,0,0,0,0,2.394033e-19,-2.22284e-16,1.112617e-16,46.879654,1.483489e-16,1.482692e-16,0,0,0,0,0,0
1.451249,5.930969,-9.866455,1.891618e-12,0,0,1.891618e-12,2.220446e-16,2.220446e-16,3.320288e-17,0,0,0,0,2.552475e-16,1.888417e-16,3.320288e-17,90,4.427051e-17,1.529141e-16,0,0,0,0,0,0
1.49854,5.930969,-9.941139,1.891618e-12,0,0,1.891618e-12,0,0,-6.610657e-18,0,0,0,0,6.610657e-18,-6.610657e-18,6.610657e-18,0,8.814209e-18,7.633329e-18,0,0,0,0,0,0
1.54583,5.930969,-10.004727,1.891618e-12,0,0,1.891618e-12,2.220446e-16,0,-4.929624e-17,0,0,0,0,2.324969e-16,-1.045227e-17,1.214746e-16,33.028885,1.619661e-16,1.585969e-16,0,0,0,0,0,0
1.593121,5.930969,-10.08804,1.891618e-12,0,0,1.891618e-12,2.220446e-16,0,-1.368314e-17,0,0,0,0,2.228846e-16,-8.400239e-19,1.118623e-16,41.486954,1.491498e-16,1.488706e-16,0,0,0,0,0,0
1.640411,5.930969,-10.166597,1.891618e-12,0,0,1.891618e-12,2.220446e-16,0,-2.253443e-17,0,0,0,0,2.243085e-16,-2.263849e-18,1.132862e-16,39.26321,1.510482e-16,1.502993e-16,0,0,0,0,0,0
1.687701,5.930969,-10.231129,1.891618e-12,0,0,1.891618e-12,0,-1.110223e-16,2.259004e-17,0,0,0,0,4.420457e-18,-1.154428e-16,5.993161e-17,56.071835,7.990881e-17,7.847683e-17,0,0,0,0,0,0
1.734992,5.930969,-10.285625,1.891618e-12,0,0,1.891618e-12,-2.220446e-16,2.220446e-16,-1.84318e-17,0,0,0,0,2.228083e-16,-2.228083e-16,2.228083e-16,-42.627396,2.970777e-16,2.572769e-16,0,0,0,0,0,0
1.782282,5.930969,-10.331591,1.891618e-12,0,0,1.891618e-12,-2.220446e-16,-1.110223e-16,-3.796947e-18,0,0,0,0,-1.108926e-16,-2.221743e-16,5.564085e-17,-43.043541,7.41878e-17,1.282725e-16,0,0,0,0,0,0
1.829573,5.930969,-10.371688,1.891618e-12,0,0,1.891618e-12,0,-2.220446e-16,4.863011e-18,0,0,0,0,1.06454e-19,-2.221511e-16,1.111288e-16,46.254036,1.481717e-16,1.481362e-16,0,0,0,0,0,0
1.876863,5.930969,-10.408625,1.891618e-12,0,0,1.891618e-12,0,0,-3.555491e-17,0,0,0,0,3.555491e-17,-3.555491e-17,3.555491e-17,0,4.740655e-17,4.105527e-17,0,0,0,0,0,0
1.924154,5.930969,-10.443257,1.891618e-12,0,0,1.891618e-12,0,2.220446e-16,3.540239e-18,0,0,0,0,2.22101e-16,-5.64306e-20,1.110787e-16,-45.913204,1.48105e-16,1.480862e-16,0,0,0,0,0,0
1.971444,5.930969,-10.474158,1.891618e-12,0,0,1.891618e-12,-2.220446e-16,2.220446e-16,8.605609e-18,0,0,0,0,2.222113e-16,-2.222113e-16,2.222113e-16,-46.10973,2.962817e-16,2.565875e-16,0,0,0,0,0,0
2.018735,5.930969,-10.500518,1.891618e-12,0,0,1.891618e-12,2.220446e-16,-1.110223e-16,1.289669e-17,0,0,0,0,2.225432e-16,-1.115209e-16,1.670321e-16,47.21413,2.227094e-16,1.963904e-16,0,0,0,0,0,0
2.066025,5.930969,-10.522931,1.891618e-12,0,0,1.891618e-12,4.440892e-16,-1.110223e-16,2.901728e-18,0,0,0,0,4.441044e-16,-1.110375e-16,2.775709e-16,45.299492,3.700946e-16,3.391953e-16,0,0,0,0,0,0
2.113316,5.930969,-10.54175,1.891618e-12,0,0,1.891618e-12,4.440892e-16,2.220446e-16,1.354095e-17,0,0,0,0,4.449119e-16,2.212219e-16,1.11845e-16,48.476898,1.491267e-16,2.568713e-16,0,0,0,0,0,0
2.160606,5.930969,-10.556957,1.891618e-12,0,0,1.891618e-12,2.220446e-16,2.220446e-16,2.192609e-17,0,0,0,0,2.439707e-16,2.001185e-16,2.192609e-17,90,2.923478e-17,1.501792e-16,0,0,0,0,0,0
2.207896,5.930969,-10.567885,1.891618e-12,0,0,1.891618e-12,-1.110223e-16,-1.110223e-16,-5.802983e-19,0,0,0,0,-1.10442e-16,-1.116026e-16,5.802983e-19,0,7.73731e-19,7.40179e-17,0,0,0,0,0,0
2.255187,5.930969,-10.573908,1.891618e-12,0,0,1.891618e-12,0,2.220446e-16,-2.279028e-18,0,0,0,0,2.22068e-16,-2.33891e-20,1.110457e-16,-44.41201,1.480609e-16,1.480531e-16,0,0,0,0,0,0
2.302477,5.930969,-10.577726,1.891618e-12,0,0,1.891618e-12,2.220446e-16,2.220446e-16,3.81986e-17,0,0,0,0,2.602432e-16,1.83846e-16,3.81986e-17,90,5.093147e-17,1.544614e-16,0,0,0,0,0,0
2.349768,5.930969,-10.581877,1.891618e-12,0,0,1.891618e-12,2.220446e-16,2.220446e-16,-2.281523e-17,0,0,0,0,2.448598e-16,1.992294e-16,2.281523e-17,0,3.042031e-17,1.503557e-16,0,0,0,0,0,0
2.397058,5.930969,-10.586485,1.891618e-12,0,0,1.891618e-12,-2.220446e-16,0,-5.137779e-17,0,0,0,0,1.131179e-17,-2.333564e-16,1.223341e-16,-32.583359,1.631121e-16,1.594753e-16,0,0,0,0,0,0
2.444349,5.930969,-10.589936,1.891618e-12,0,0,1.891618e-12,2.220446e-16,0,-9.355067e-18,0,0,0,0,2.224381e-16,-3.934456e-19,1.114157e-16,42.591732,1.485543e-16,1.484234e-16,0,0,0,0,0,0
2.491639,5.930969,-10.590877,1.891618e-12,0,0,1.891618e-12,0,0,-1.289976e-17,0,0,0,0,1.289976e-17,-1.289976e-17,1.289976e-17,0,1.719967e-17,1.489535e-17,0,0,0,0,0,0
2.53893,5.930969,-10.589356,1.891618e-12,0,0,1.891618e-12,-1.110223e-16,0,-6.159871e-17,0,0,0,0,2.740983e-17,-1.384321e-16,8.292098e-17,-21.012177,1.105613e-16,1.026519e-16,0,0,0,0,0,0
2.58622,5.930969,-10.587424,1.891618e-12,0,0,1.891618e-12,2.220446e-16,0,1.170812e-17,0,0,0,0,2.226602e-16,-6.156463e-19,1.116379e-16,48.010006,1.488506e-16,1.486458e-16,0,0,0,0,0,0
2.633511,5.930969,-10.584923,1.891618e-12,0,0,1.891618e-12,0,2.220446e-16,5.539592e-17,0,0,0,0,2.350975e-16,-1.305292e-17,1.240752e-16,-58.258728,1.654336e-16,1.612588e-16,0,0,0,0,0,0
2.680801,5.930969,-10.580402,1.891618e-12,0,0,1.891618e-12,2.220446e-16,0,-4.19493e-17,0,0,0,0,2.297055e-16,-7.66087e-18,1.186832e-16,34.65057,1.582442e-16,1.557534e-16,0,0,0,0,0,0
2.728091,5.930969,-10.572196,1.891618e-12,0,0,1.891618e-12,0,0,1.449007e-17,0,0,0,0,1.449007e-17,-1.449007e-17,1.449007e-17,90,1.932009e-17,1.673169e-17,0,0,0,0,0,0
2.775382,5.930969,-10.56059,1.891618e-12,0,0,1.891618e-12,2.220446e-16,-1.110223e-16,8.15113e-18,0,0,0,0,2.22244e-16,-1.112217e-16,1.667328e-16,46.401077,2.223104e-16,1.96051e-16,0,0,0,0,0,0
2.822672,5.930969,-10.545216,1.891618e-12,0,0,1.891618e-12,-2.220446e-16,0,4.433976e-17,0,0,0,0,8.526709e-18,-2.305713e-16,1.19549e-16,-55.885319,1.593987e-16,1.566338e-16,0,0,0,0,0,0
2.869963,5.930969,-10.525865,1.891618e-12,0,0,1.891618e-12,2.220446e-16,-1.110223e-16,3.124664e-17,0,0,0,0,2.249506e-16,-1.139284e-16,1.694395e-16,50.313419,2.259193e-16,1.991211e-16,0,0,0,0,0,0
2.917253,5.930969,-10.501579,1.891618e-12,0,0,1.891618e-12,2.220446e-16,-1.110223e-16,1.809237e-17,0,0,0,0,2.230245e-16,-1.120022e-16,1.675134e-16,48.100178,2.233512e-16,1.969362e-16,0,0,0,0,0,0
2.964544,5.930969,-10.473557,1.891618e-12,0,0,1.891618e-12,0,0,2.397173e-19,0,0,0,0,2.397173e-19,-2.397173e-19,2.397173e-19,90,3.196231e-19,2.768017e-19,0,0,0,0,0,0
3.011834,5.930969,-10.443752,1.891618e-12,0,0,1.891618e-12,2.220446e-16,-1.110223e-16,1.878659e-17,0,0,0,0,2.231009e-16,-1.120786e-16,1.675898e-16,48.218155,2.23453e-16,1.970228e-16,0,0,0,0,0,0
3.059125,5.930969,-10.413316,1.891618e-12,0,0,1.891618e-12,2.220446e-16,2.220446e-16,3.572013e-18,0,0,0,0,2.256166e-16,2.184726e-16,3.572013e-18,90,4.762685e-18,1.480872e-16,0,0,0,0,0,0
3.106415,5.930969,-10.380494,1.891618e-12,0,0,1.891618e-12,2.220446e-16,0,-2.200932e-17,0,0,0,0,2.242052e-16,-2.160566e-18,1.131829e-16,39.393467,1.509105e-16,1.501955e-16,0,0,0,0,0,0
3.153705,5.930969,-10.344065,1.891618e-12,0,0,1.891618e-12,2.220446e-16,2.220446e-16,-2.481297e-17,0,0,0,0,2.468576e-16,1.972316e-16,2.481297e-17,0,3.308397e-17,1.50777e-16,0,0,0,0,0,0
3.200996,5.930969,-10.301971,1.891618e-12,0,0,1.891618e-12,4.440892e-16,2.220446e-16,-2.481914e-17,0,0,0,0,4.468296e-16,2.193043e-16,1.137627e-16,38.699333,1.516835e-16,2.579917e-16,0,0,0,0,0,0
3.248286,5.930969,-10.254078,1.891618e-12,0,0,1.891618e-12,4.440892e-16,0,-4.386154e-17,0,0,0,0,4.483799e-16,-4.290635e-18,2.263353e-16,39.412971,3.017803e-16,3.003603e-16,0,0,0,0,0,0
3.295577,5.930969,-10.200417,1.891618e-12,0,0,1.891618e-12,2.220446e-16,2.220446e-16,-8.190233e-18,0,0,0,0,2.302348e-16,2.138544e-16,8.190233e-18,0,1.092031e-17,1.483315e-16,0,0,0,0,0,0
3.342867,5.930969,-10.134035,1.891618e-12,0,0,1.891618e-12,2.220446e-16,-1.110223e-16,-4.195817e-17,0,0,0,0,2.27249e-16,-1.162267e-16,1.717378e-16,37.929314,2.289838e-16,2.017293e-16,0,0,0,0,0,0
1.451249,5.883678,-9.874188,1.891618e-12,0,0,1.891618e-12,-6.661338e-16,0,-7.614196e-17,0,0,0,0,8.592517e-18,-6.747263e-16,3.416594e-16,-38.561489,4.555459e-16,4.527089e-16,0,0,0,0,0,0
1.49854,5.883678,-9.944539,1.891618e-12,0,0,1.891618e-12,2.220446e-16,-1.110223e-16,4.818228e-18,0,0,0,0,2.221143e-16,-1.11092e-16,1.666031e-16,45.828625,2.221375e-16,1.95904e-16,0,0,0,0,0,0
1.54583,5.883678,-10.00768,1.891618e-12,0,0,1.891618e-12,-1.110223e-16,0,-7.844232e-18,0,0,0,0,5.514912e-19,-1.115738e-16,5.606264e-17,-40.97842,7.475019e-17,7.456704e-17,0,0,0,0,0,0
1.593121,5.883678,-10.091705,1.891618e-12,0,0,1.891618e-12,-1.110223e-16,2.220446e-16,-3.357237e-17,0,0,0,0,2.253949e-16,-1.143726e-16,1.698838e-16,-39.301102,2.265117e-16,1.996252e-16,0,0,0,0,0,0
1.640411,5.883678,-10.168389,1.891618e-12,0,0,1.891618e-12,-1.110223e-16,2.220446e-16,-5.127653e-17,0,0,0,0,2.2976e-16,-1.187377e-16,1.742489e-16,-36.443062,2.323318e-16,2.045803e-16,0,0,0,0,0,0
1.687701,5.883678,-10.231754,1.891618e-12,0,0,1.891618e-12,-3.330669e-16,-5.551115e-16,-1.506397e-17,0,0,0,0,-3.320496e-16,-5.561288e-16,1.120396e-16,41.136528,1.493861e-16,3.230919e-16,0,0,0,0,0,0
1.734992,5.883678,-10.28559,1.891618e-12,0,0,1.891618e-12,-2.220446e-16,2.220446e-16,2.600839e-17,0,0,0,0,2.235626e-16,-2.235626e-16,2.235626e-16,-48.340347,2.980835e-16,2.581479e-16,0,0,0,0,0,0
1.782282,5.883678,-10.33165,1.891618e-12,0,0,1.891618e-12,0,0,-1.13446e-18,0,0,0,0,1.13446e-18,-1.13446e-18,1.13446e-18,0,1.512614e-18,1.309962e-18,0,0,0,0,0,0
1.829573,5.883678,-10.372236,1.891618e-12,0,0,1.891618e-12,0,-2.220446e-16,2.086666e-18,0,0,0,0,1.960773e-20,-2.220642e-16,1.110419e-16,45.538376,1.480559e-16,1.480493e-16,0,0,0,0,0,0
1.876863,5.883678,-10.409218,1.891618e-12,0,0,1.891618e-12,0,2.220446e-16,1.241634e-17,0,0,0,0,2.227367e-16,-6.92142e-19,1.117144e-16,-48.19062,1.489526e-16,1.487224e-16,0,0,0,0,0,0
1.924154,5.883678,-10.442935,1.891618e-12,0,0,1.891618e-12,0,-2.220446e-16,-1.922459e-17,0,0,0,0,1.652168e-18,-2.236968e-16,1.126745e-16,40.088047,1.502326e-16,1.496849e-16,0,0,0,0,0,0
1.971444,5.883678,-10.472685,1.891618e-12,0,0,1.891618e-12,0,0,3.167024e-17,0,0,0,0,3.167024e-17,-3.167024e-17,3.167024e-17,90,4.222699e-17,3.656965e-17,0,0,0,0,0,0
2.018735,5.883678,-10.49849,1.891618e-12,0,0,1.891618e-12,0,0,3.741869e-18,0,0,0,0,3.741869e-18,-3.741869e-18,3.741869e-18,90,4.989159e-18,4.320739e-18,0,0,0,0,0,0
2.066025,5.883678,-10.520982,1.891618e-12,0,0,1.891618e-12,-1.110223e-16,-1.110223e-16,-1.959529e-17,0,0,0,0,-9.142702e-17,-1.306176e-16,1.959529e-17,0,2.612705e-17,7.739617e-17,0,0,0,0,0,0
2.113316,5.883678,-10.540544,1.891618e-12,0,0,1.891618e-12,2.220446e-16,2.220446e-16,-1.485108e-17,0,0,0,0,2.368957e-16,2.071935e-16,1.485108e-17,0,1.980144e-17,1.490197e-16,0,0,0,0,0,0
2.160606,5.883678,-10.557093,1.891618e-12,0,0,1.891618e-12,-1.110223e-16,-1.110223e-16,-7.027093e-18,0,0,0,0,-1.039952e-16,-1.180494e-16,7.027093e-18,0,9.369457e-18,7.445832e-17,0,0,0,0,0,0
2.207896,5.883678,-10.569631,1.891618e-12,0,0,1.891618e-12,0,0,-4.062656e-17,0,0,0,0,4.062656e-17,-4.062656e-17,4.062656e-17,0,5.416875e-17,4.691151e-17,0,0,0,0,0,0
2.255187,5.883678,-10.577527,1.891618e-12,0,0,1.891618e-12,0,0,3.460896e-18,0,0,0,0,3.460896e-18,-3.460896e-18,3.460896e-18,90,4.614528e-18,3.996299e-18,0,0,0,0,0,0
2.302477,5.883678,-10.582918,1.891618e-12,0,0,1.891618e-12,0,-1.110223e-16,4.413696e-18,0,0,0,0,1.751902e-19,-1.111975e-16,5.568634e-17,47.273014,7.424845e-17,7.419013e-17,0,0,0,0,0,0
2.349768,5.883678,-10.587741,1.891618e-12,0,0,1.891618e-12,-2.220446e-16,0,2.385615e-18,0,0,0,0,2.562773e-20,-2.220702e-16,1.110479e-16,-45.615482,1.480639e-16,1.480554e-16,0,0,0,0,0,0
2.397058,5.883678,-10.592016,1.891618e-12,0,0,1.891618e-12,0,2.220446e-16,-1.466577e-18,0,0,0,0,2.220543e-16,-9.686136e-21,1.11032e-16,-44.62159,1.480426e-16,1.480394e-16,0,0,0,0,0,0
2.444349,5.883678,-10.594331,1.891618e-12,0,0,1.891618e-12,-1.110223e-16,-2.220446e-16,-1.036177e-17,0,0,0,0,-1.100635e-16,-2.230034e-16,5.646994e-17,39.713394,7.529325e-17,1.287546e-16,0,0,0,0,0,0
2.491639,5.883678,-10.593918,1.891618e-12,0,0,1.891618e-12,2.220446e-16,2.220446e-16,-1.609789e-17,0,0,0,0,2.381425e-16,2.059467e-16,1.609789e-17,0,2.146385e-17,1.491922e-16,0,0,0,0,0,0
2.53893,5.883678,-10.591637,1.891618e-12,0,0,1.891618e-12,2.220446e-16,-1.110223e-16,-2.110521e-18,0,0,0,0,2.22058e-16,-1.110357e-16,1.665468e-16,44.636959,2.220624e-16,1.958401e-16,0,0,0,0,0,0
2.58622,5.883678,-10.58929,1.891618e-12,0,0,1.891618e-12,0,0,6.594735e-18,0,0,0,0,6.594735e-18,-6.594735e-18,6.594735e-18,90,8.79298e-18,7.614944e-18,0,0,0,0,0,0
2.633511,5.883678,-10.586474,1.891618e-12,0,0,1.891618e-12,0,-2.220446e-16,-9.41625e-19,0,0,0,0,3.993079e-21,-2.220486e-16,1.110263e-16,44.75703,1.480351e-16,1.480337e-16,0,0,0,0,0,0
2.680801,5.883678,-10.581507,1.891618e-12,0,0,1.891618e-12,2.220446e-16,-1.110223e-16,4.407137e-18,0,0,0,0,2.221029e-16,-1.110806e-16,1.665918e-16,45.757961,2.221223e-16,1.95891e-16,0,0,0,0,0,0
2.728091,5.883678,-10.573027,1.891618e-12,0,0,1.891618e-12,0,-1.110223e-16,2.417812e-18,0,0,0,0,5.262948e-20,-1.110749e-16,5.556378e-17,46.246983,7.408504e-17,7.406751e-17,0,0,0,0,0,0
2.775382,5.883678,-10.561635,1.891618e-12,0,0,1.891618e-12,2.220446e-16,-2.220446e-16,-2.227212e-18,0,0,0,0,2.220558e-16,-2.220558e-16,2.220558e-16,44.712658,2.960744e-16,2.564079e-16,0,0,0,0,0,0
2.822672,5.883678,-10.547289,1.891618e-12,0,0,1.891618e-12,-1.110223e-16,2.220446e-16,-9.295649e-18,0,0,0,0,2.223038e-16,-1.112815e-16,1.667927e-16,-43.402576,2.223902e-16,1.961189e-16,0,0,0,0,0,0
2.869963,5.883678,-10.52928,1.891618e-12,0,0,1.891618e-12,-1.110223e-16,-2.220446e-16,-2.27087e-17,0,0,0,0,-1.06557e-16,-2.265099e-16,5.997644e-17,33.875668,7.996858e-17,1.308518e-16,0,0,0,0,0,0
2.917253,5.883678,-10.506022,1.891618e-12,0,0,1.891618e-12,2.220446e-16,-1.110223e-16,8.783247e-18,0,0,0,0,2.222761e-16,-1.112538e-16,1.667649e-16,46.509537,2.223532e-16,1.960874e-16,0,0,0,0,0,0
2.964544,5.883678,-10.478193,1.891618e-12,0,0,1.891618e-12,-1.110223e-16,0,3.819183e-17,0,0,0,0,1.186914e-17,-1.228914e-16,6.738029e-17,-62.264038,8.984038e-17,8.615696e-17,0,0,0,0,0,0
3.011834,5.883678,-10.447759,1.891618e-12,0,0,1.891618e-12,0,2.220446e-16,-1.020782e-17,0,0,0,0,2.225129e-16,-4.682855e-19,1.114906e-16,-42.373386,1.486541e-16,1.484983e-16,0,0,0,0,0,0
3.059125,5.883678,-10.416089,1.891618e-12,0,0,1.891618e-12,-2.220446e-16,0,4.222309e-17,0,0,0,0,7.75792e-18,-2.298025e-16,1.187802e-16,-55.411201,1.583736e-16,1.55852e-16,0,0,0,0,0,0
3.106415,5.883678,-10.382232,1.891618e-12,0,0,1.891618e-12,0,4.440892e-16,-3.975944e-17,0,0,0,0,4.476208e-16,-3.531591e-18,2.255762e-16,-39.924084,3.007683e-16,2.99598e-16,0,0,0,0,0,0
3.153705,5.883678,-10.345356,1.891618e-12,0,0,1.891618e-12,-4.440892e-16,-5.551115e-16,7.06728e-19,0,0,0,0,-4.440847e-16,-5.55116e-16,5.551565e-17,45.364704,7.402087e-17,3.391797e-16,0,0,0,0,0,0
3.200996,5.883678,-10.303954,1.891618e-12,0,0,1.891618e-12,0,0,-2.443318e-17,0,0,0,0,2.443318e-17,-2.443318e-17,2.443318e-17,0,3.257757e-17,2.8213e-17,0,0,0,0,0,0
3.248286,5.883678,-10.256046,1.891618e-12,0,0,1.891618e-12,2.220446e-16,-1.110223e-16,1.826166e-17,0,0,0,0,2.230429e-16,-1.120206e-16,1.675317e-16,48.128956,2.233756e-16,1.96957e-16,0,0,0,0,0,0
3.295577,5.883678,-10.202387,1.891618e-12,0,0,1.891618e-12,2.220446e-16,2.220446e-16,4.660551e-17,0,0,0,0,2.686501e-16,1.754391e-16,4.660551e-17,90,6.214068e-17,1.575084e-16,0,0,0,0,0,0
3.342867,5.883678,-10.137379,1.891618e-12,0,0,1.891618e-12,-2.220446e-16,0,4.78365e-17,0,0,0,0,9.867245e-18,-2.319119e-16,1.208895e-16,-56.654949,1.611861e-16,1.579997e-16,0,0,0,0,0,0
1.451249,5.836388,-9.883872,1.891618e-12,0,0,1.891618e-12,0,2.220446e-16,1.3843e-17,0,0,0,0,2.229043e-16,-8.596904e-19,1.11882e-16,-48.553669,1.49176e-16,1.488903e-16,0,0,0,0,0,0
1.49854,5.836388,-9.950243,1.891618e-12,0,0,1.891618e-12,2.220446e-16,0,-1.558546e-17,0,0,0,0,2.231332e-16,-1.088617e-18,1.121109e-16,41.004478,1.494812e-16,1.491197e-16,0,0,0,0,0,0
1.54583,5.836388,-10.012664,1.891618e-12,0,0,1.891618e-12,-3.330669e-16,0,-4.714836e-17,0,0,0,0,6.545599e-18,-3.396125e-16,1.730791e-16,-37.096157,2.307721e-16,2.286214e-16,0,0,0,0,0,0
1.593121,5.836388,-10.09704,1.891618e-12,0,0,1.891618e-12,2.220446e-16,0,-1.177793e-17,0,0,0,0,2.226676e-16,-6.229893e-19,1.116453e-16,41.972183,1.488604e-16,1.486532e-16,0,0,0,0,0,0
1.640411,5.836388,-10.170579,1.891618e-12,0,0,1.891618e-12,0,0,-8.202332e-17,0,0,0,0,8.202332e-17,-8.202332e-17,8.202332e-17,0,1.093644e-16,9.471237e-17,0,0,0,0,0,0
1.687701,5.836388,-10.232603,1.891618e-12,0,0,1.891618e-12,4.440892e-16,2.220446e-16,7.287857e-18,0,0,0,0,4.443281e-16,2.218057e-16,1.112612e-16,46.877846,1.483483e-16,2.565331e-16,0,0,0,0,0,0
1.734992,5.836388,-10.286048,1.891618e-12,0,0,1.891618e-12,2.220446e-16,2.220446e-16,-2.811646e-17,0,0,0,0,2.501611e-16,1.939281e-16,2.811646e-17,0,3.748862e-17,1.515482e-16,0,0,0,0,0,0
1.782282,5.836388,-10.332326,1.891618e-12,0,0,1.891618e-12,0,2.220446e-16,-1.42367e-17,0,0,0,0,2.229537e-16,-9.090835e-19,1.119314e-16,-41.34634,1.492418e-16,1.489397e-16,0,0,0,0,0,0
1.829573,5.836388,-10.373246,1.891618e-12,0,0,1.891618e-12,0,0,2.531968e-17,0,0,0,0,2.531968e-17,-2.531968e-17,2.531968e-17,90,3.375957e-17,2.923665e-17,0,0,0,0,0,0
1.876863,5.836388,-10.41009,1.891618e-12,0,0,1.891618e-12,0,2.220446e-16,2.600396e-17,0,0,0,0,2.250493e-16,-3.004702e-18,1.14027e-16,-51.591175,1.52036e-16,1.510444e-16,0,0,0,0,0,0
1.924154,5.836388,-10.442818,1.891618e-12,0,0,1.891618e-12,2.220446e-16,2.220446e-16,-2.378885e-17,0,0,0,0,2.458334e-16,1.982558e-16,2.378885e-17,0,3.171847e-17,1.505568e-16,0,0,0,0,0,0
1.971444,5.836388,-10.471335,1.891618e-12,0,0,1.891618e-12,2.220446e-16,2.220446e-16,-1.224661e-17,0,0,0,0,2.342912e-16,2.09798e-16,1.224661e-17,0,1.632881e-17,1.487036e-16,0,0,0,0,0,0
2.018735,5.836388,-10.496262,1.891618e-12,0,0,1.891618e-12,2.220446e-16,-1.110223e-16,-4.236506e-17,0,0,0,0,2.273488e-16,-1.163265e-16,1.718377e-16,37.863537,2.291169e-16,2.018427e-16,0,0,0,0,0,0
2.066025,5.836388,-10.518432,1.891618e-12,0,0,1.891618e-12,2.220446e-16,-1.110223e-16,-2.947097e-18,0,0,0,0,2.220707e-16,-1.110484e-16,1.665595e-16,44.49308,2.220794e-16,1.958545e-16,0,0,0,0,0,0
2.113316,5.836388,-10.538504,1.891618e-12,0,0,1.891618e-12,0,-2.220446e-16,-1.570478e-17,0,0,0,0,1.105266e-18,-2.231499e-16,1.121276e-16,40.974293,1.495034e-16,1.491364e-16,0,0,0,0,0,0
2.160606,5.836388,-10.556248,1.891618e-12,0,0,1.891618e-12,2.220446e-16,0,-2.057591e-17,0,0,0,0,2.239352e-16,-1.890583e-18,1.129129e-16,39.750214,1.505505e-16,1.499243e-16,0,0,0,0,0,0
2.207896,5.836388,-10.570577,1.891618e-12,0,0,1.891618e-12,0,-1.110223e-16,1.358337e-17,0,0,0,0,1.637741e-18,-1.1266e-16,5.714889e-17,51.874943,7.619852e-17,7.565852e-17,0,0,0,0,0,0
2.255187,5.836388,-10.580602,1.891618e-12,0,0,1.891618e-12,-2.220446e-16,-1.110223e-16,7.611074e-18,0,0,0,0,-1.10503e-16,-2.225639e-16,5.603049e-17,-48.903542,7.470733e-17,1.284984e-16,0,0,0,0,0,0
2.302477,5.836388,-10.587632,1.891618e-12,0,0,1.891618e-12,0,0,-1.526737e-17,0,0,0,0,1.526737e-17,-1.526737e-17,1.526737e-17,0,2.035649e-17,1.762924e-17,0,0,0,0,0,0
2.349768,5.836388,-10.593048,1.891618e-12,0,0,1.891618e-12,0,0,1.2409e-17,0,0,0,0,1.2409e-17,-1.2409e-17,1.2409e-17,90,1.654533e-17,1.432868e-17,0,0,0,0,0,0
2.397058,5.836388,-10.596976,1.891618e-12,0,0,1.891618e-12,4.440892e-16,-1.110223e-16,1.257247e-17,0,0,0,0,4.443738e-16,-1.113069e-16,2.778404e-16,46.29678,3.704538e-16,3.394893e-16,0,0,0,0,0,0
2.444349,5.836388,-10.598381,1.891618e-12,0,0,1.891618e-12,-2.220446e-16,2.220446e-16,-7.072835e-19,0,0,0,0,2.220457e-16,-2.220457e-16,2.220457e-16,-44.908749,2.96061e-16,2.563963e-16,0,0,0,0,0,0
2.491639,5.836388,-10.597292,1.891618e-12,0,0,1.891618e-12,2.220446e-16,0,-2.795524e-17,0,0,0,0,2.255101e-16,-3.465457e-18,1.144878e-16,37.933407,1.526503e-16,1.515084e-16,0,0,0,0,0,0
2.53893,5.836388,-10.594811,1.891618e-12,0,0,1.891618e-12,-1.110223e-16,0,2.033657e-17,0,0,0,0,3.607914e-18,-1.146302e-16,5.911907e-17,-55.060181,7.882542e-17,7.765073e-17,0,0,0,0,0,0
2.58622,5.836388,-10.592284,1.891618e-12,0,0,1.891618e-12,0,0,-1.276584e-17,0,0,0,0,1.276584e-17,-1.276584e-17,1.276584e-17,0,1.702112e-17,1.474072e-17,0,0,0,0,0,0
2.633511,5.836388,-10.588935,1.891618e-12,0,0,1.891618e-12,0,2.220446e-16,-1.987938e-17,0,0,0,0,2.238104e-16,-1.765735e-18,1.12788e-16,-39.924171,1.503841e-16,1.497989e-16,0,0,0,0,0,0
2.680801,5.836388,-10.583176,1.891618e-12,0,0,1.891618e-12,-1.110223e-16,2.220446e-16,6.211311e-17,0,0,0,0,2.332509e-16,-1.222286e-16,1.777398e-16,-55.227173,2.369864e-16,2.08546e-16,0,0,0,0,0,0
2.728091,5.836388,-10.573988,1.891618e-12,0,0,1.891618e-12,2.220446e-16,0,-7.585369e-18,0,0,0,0,2.223034e-16,-2.588256e-19,1.112811e-16,43.045731,1.483748e-16,1.482886e-16,0,0,0,0,0,0
2.775382,5.836388,-10.562449,1.891618e-12,0,0,1.891618e-12,2.220446e-16,-2.220446e-16,-2.826131e-17,0,0,0,0,2.238359e-16,-2.238359e-16,2.238359e-16,41.373264,2.984479e-16,2.584634e-16,0,0,0,0,0,0
2.822672,5.836388,-10.548749,1.891618e-12,0,0,1.891618e-12,2.220446e-16,2.220446e-16,-8.615516e-18,0,0,0,0,2.306601e-16,2.134291e-16,8.615516e-18,0,1.148735e-17,1.483636e-16,0,0,0,0,0,0
2.869963,5.836388,-10.53174,1.891618e-12,0,0,1.891618e-12,-1.110223e-16,-2.220446e-16,-2.051188e-17,0,0,0,0,-1.073539e-16,-2.257131e-16,5.91796e-17,34.860134,7.890614e-17,1.303671e-16,0,0,0,0,0,0
2.917253,5.836388,-10.509467,1.891618e-12,0,0,1.891618e-12,0,2.220446e-16,6.578939e-18,0,0,0,0,2.222394e-16,-1.94756e-19,1.112171e-16,-46.695629,1.482894e-16,1.482245e-16,0,0,0,0,0,0
2.964544,5.836388,-10.482185,1.891618e-12,0,0,1.891618e-12,2.220446e-16,-1.110223e-16,-1.974015e-18,0,0,0,0,2.220563e-16,-1.11034e-16,1.665452e-16,44.660435,2.220602e-16,1.958382e-16,0,0,0,0,0,0
3.011834,5.836388,-10.451661,1.891618e-12,0,0,1.891618e-12,2.220446e-16,2.220446e-16,-4.17478e-17,0,0,0,0,2.637924e-16,1.802968e-16,4.17478e-17,0,5.566374e-17,1.556812e-16,0,0,0,0,0,0
3.059125,5.836388,-10.4195,1.891618e-12,0,0,1.891618e-12,0,-1.110223e-16,-8.612929e-18,0,0,0,0,6.642033e-19,-1.116865e-16,5.617536e-17,40.590248,7.490047e-17,7.468006e-17,0,0,0,0,0,0
3.106415,5.836388,-10.385094,1.891618e-12,0,0,1.891618e-12,0,0,-1.953508e-17,0,0,0,0,1.953508e-17,-1.953508e-17,1.953508e-17,0,2.604677e-17,2.255716e-17,0,0,0,0,0,0
3.153705,5.836388,-10.347685,1.891618e-12,0,0,1.891618e-12,2.220446e-16,4.440892e-16,-1.410706e-17,0,0,0,0,4.449819e-16,2.211519e-16,1.11915e-16,-41.379257,1.4922e-16,2.569119e-16,0,0,0,0,0,0
3.200996,5.836388,-10.306529,1.891618e-12,0,0,1.891618e-12,0,4.440892e-16,6.84492e-18,0,0,0,0,4.441947e-16,-1.054784e-19,2.221501e-16,-45.882843,2.962001e-16,2.96165e-16,0,0,0,0,0,0
3.248286,5.836388,-10.258278,1.891618e-12,0,0,1.891618e-12,4.440892e-16,-1.110223e-16,2.65338e-17,0,0,0,0,4.453546e-16,-1.122877e-16,2.788212e-16,47.730385,3.717615e-16,3.405597e-16,0,0,0,0,0,0
3.295577,5.836388,-10.203907,1.891618e-12,0,0,1.891618e-12,-1.110223e-16,2.220446e-16,9.59533e-18,0,0,0,0,2.223208e-16,-1.112985e-16,1.668097e-16,-46.648811,2.224129e-16,1.961381e-16,0,0,0,0,0,0
3.342867,5.836388,-10.138813,1.891618e-12,0,0,1.891618e-12,0,2.220446e-16,6.868687e-17,0,0,0,0,2.415744e-16,-1.952974e-17,1.30552e-16,-60.872047,1.740694e-16,1.679384e-16,0,0,0,0,0,0
1.451249,5.789097,-9.892254,1.891618e-12,0,0,1.891618e-12,0,0,-7.553306e-17,0,0,0,0,7.553306e-17,-7.553306e-17,7.553306e-17,0,1.007107e-16,8.721806e-17,0,0,0,0,0,0
1.49854,5.789097,-9.955238,1.891618e-12,0,0,1.891618e-12,2.220446e-16,-1.110223e-16,3.433263e-17,0,0,0,0,2.255468e-16,-1.145245e-16,1.700356e-16,50.824463,2.267142e-16,1.997975e-16,0,0,0,0,0,0
1.54583,5.789097,-10.01669,1.891618e-12,0,0,1.891618e-12,-1.110223e-16,2.220446e-16,2.181131e-17,0,0,0,0,2.234669e-16,-1.124446e-16,1.679557e-16,-48.73085,2.23941e-16,1.974379e-16,0,0,0,0,0,0
1.593121,5.789097,-10.100858,1.891618e-12,0,0,1.891618e-12,2.220446e-16,0,4.22575e-17,0,0,0,0,2.298148e-16,-7.770154e-18,1.187925e-16,55.418957,1.583899e-16,1.558645e-16,0,0,0,0,0,0
1.640411,5.789097,-10.172085,1.891618e-12,0,0,1.891618e-12,2.220446e-16,-1.110223e-16,4.320536e-18,0,0,0,0,2.221006e-16,-1.110783e-16,1.665895e-16,45.743073,2.221193e-16,1.958885e-16,0,0,0,0,0,0
1.687701,5.789097,-10.232947,1.891618e-12,0,0,1.891618e-12,0,0,-3.044627e-17,0,0,0,0,3.044627e-17,-3.044627e-17,3.044627e-17,0,4.059502e-17,3.515632e-17,0,0,0,0,0,0
1.734992,5.789097,-10.286006,1.891618e-12,0,0,1.891618e-12,2.220446e-16,2.220446e-16,-3.20344e-17,0,0,0,0,2.54079e-16,1.900102e-16,3.20344e-17,0,4.271253e-17,1.525814e-16,0,0,0,0,0,0
1.782282,5.789097,-10.332499,1.891618e-12,0,0,1.891618e-12,-3.330669e-16,2.220446e-16,-6.403754e-17,0,0,0,0,2.293362e-16,-3.403585e-16,2.848473e-16,-38.504044,3.797964e-16,3.309888e-16,0,0,0,0,0,0
1.829573,5.789097,-10.373817,1.891618e-12,0,0,1.891618e-12,0,2.220446e-16,-2.733227e-17,0,0,0,0,2.253595e-16,-3.314937e-18,1.143372e-16,-38.084774,1.524497e-16,1.513568e-16,0,0,0,0,0,0
1.876863,5.789097,-10.410733,1.891618e-12,0,0,1.891618e-12,-2.220446e-16,-1.110223e-16,4.070632e-18,0,0,0,0,-1.108733e-16,-2.221937e-16,5.56602e-17,-47.096996,7.42136e-17,1.282837e-16,0,0,0,0,0,0
1.924154,5.789097,-10.442866,1.891618e-12,0,0,1.891618e-12,2.220446e-16,0,-1.443949e-17,0,0,0,0,2.229796e-16,-9.350575e-19,1.119574e-16,41.294872,1.492765e-16,1.489658e-16,0,0,0,0,0,0
1.971444,5.789097,-10.470393,1.891618e-12,0,0,1.891618e-12,2.220446e-16,-1.110223e-16,-5.035384e-19,0,0,0,0,2.220454e-16,-1.110231e-16,1.665342e-16,44.91338,2.220456e-16,1.958258e-16,0,0,0,0,0,0
2.018735,5.789097,-10.494489,1.891618e-12,0,0,1.891618e-12,2.220446e-16,2.220446e-16,-9.913671e-18,0,0,0,0,2.319583e-16,2.121309e-16,9.913671e-18,0,1.321823e-17,1.484717e-16,0,0,0,0,0,0
2.066025,5.789097,-10.516411,1.891618e-12,0,0,1.891618e-12,0,-1.110223e-16,-6.705253e-19,0,0,0,0,4.049527e-21,-1.110264e-16,5.55152e-17,44.653976,7.402027e-17,7.401892e-17,0,0,0,0,0,0
2.113316,5.789097,-10.537063,1.891618e-12,0,0,1.891618e-12,2.220446e-16,-1.110223e-16,-2.994203e-17,0,0,0,0,2.247149e-16,-1.136926e-16,1.692038e-16,39.903679,2.25605e-16,1.988537e-16,0,0,0,0,0,0
2.160606,5.789097,-10.55586,1.891618e-12,0,0,1.891618e-12,2.220446e-16,4.440892e-16,-2.389441e-17,0,0,0,0,4.466314e-16,2.195024e-16,1.135645e-16,-38.926991,1.514193e-16,2.578753e-16,0,0,0,0,0,0
2.207896,5.789097,-10.571522,1.891618e-12,0,0,1.891618e-12,2.220446e-16,2.220446e-16,2.502355e-17,0,0,0,0,2.470682e-16,1.970211e-16,2.502355e-17,90,3.336473e-17,1.508234e-16,0,0,0,0,0,0
2.255187,5.789097,-10.583053,1.891618e-12,0,0,1.891618e-12,2.220446e-16,-1.110223e-16,-2.976007e-17,0,0,0,0,2.246828e-16,-1.136605e-16,1.691717e-16,39.934006,2.255622e-16,1.988172e-16,0,0,0,0,0,0
2.302477,5.789097,-10.591045,1.891618e-12,0,0,1.891618e-12,-1.110223e-16,-2.220446e-16,2.817404e-17,0,0,0,0,-1.042818e-16,-2.287851e-16,6.225162e-17,58.454769,8.300216e-17,1.32261e-16,0,0,0,0,0,0
2.349768,5.789097,-10.596572,1.891618e-12,0,0,1.891618e-12,0,2.220446e-16,-8.96234e-18,0,0,0,0,2.224058e-16,-3.611576e-19,1.113835e-16,-42.692387,1.485113e-16,1.48391e-16,0,0,0,0,0,0
2.397058,5.789097,-10.600019,1.891618e-12,0,0,1.891618e-12,2.220446e-16,-1.110223e-16,1.672352e-17,0,0,0,0,2.228822e-16,-1.118599e-16,1.673711e-16,47.867249,2.231614e-16,1.967748e-16,0,0,0,0,0,0
2.444349,5.789097,-10.600726,1.891618e-12,0,0,1.891618e-12,0,2.220446e-16,-6.907236e-18,0,0,0,0,2.222593e-16,-2.146588e-19,1.11237e-16,-43.219971,1.483159e-16,1.482445e-16,0,0,0,0,0,0
2.491639,5.789097,-10.599593,1.891618e-12,0,0,1.891618e-12,0,0,1.130112e-17,0,0,0,0,1.130112e-17,-1.130112e-17,1.130112e-17,90,1.506816e-17,1.304941e-17,0,0,0,0,0,0
2.53893,5.789097,-10.597639,1.891618e-12,0,0,1.891618e-12,2.220446e-16,-1.110223e-16,1.164428e-17,0,0,0,0,2.224512e-16,-1.114289e-16,1.669401e-16,46.999851,2.225867e-16,1.96286e-16,0,0,0,0,0,0
2.58622,5.789097,-10.595565,1.891618e-12,0,0,1.891618e-12,-1.110223e-16,2.220446e-16,-2.663168e-17,0,0,0,0,2.241606e-16,-1.131383e-16,1.686494e-16,-40.457157,2.248659e-16,1.982248e-16,0,0,0,0,0,0
2.633511,5.789097,-10.592224,1.891618e-12,0,0,1.891618e-12,-1.110223e-16,2.220446e-16,2.555275e-17,0,0,0,0,2.239936e-16,-1.129713e-16,1.684825e-16,-49.361691,2.246432e-16,1.980353e-16,0,0,0,0,0,0
2.680801,5.789097,-10.586057,1.891618e-12,0,0,1.891618e-12,-1.110223e-16,0,-3.066364e-17,0,0,0,0,7.906094e-18,-1.189284e-16,6.341724e-17,-30.542152,8.455633e-17,8.204803e-17,0,0,0,0,0,0
2.728091,5.789097,-10.576166,1.891618e-12,0,0,1.891618e-12,2.220446e-16,2.220446e-16,5.45653e-18,0,0,0,0,2.275011e-16,2.165881e-16,5.45653e-18,90,7.275373e-18,1.481638e-16,0,0,0,0,0,0
2.775382,5.789097,-10.564212,1.891618e-12,0,0,1.891618e-12,2.220446e-16,2.220446e-16,3.511023e-17,0,0,0,0,2.571548e-16,1.869344e-16,3.511023e-17,90,4.681364e-17,1.534811e-16,0,0,0,0,0,0
2.822672,5.789097,-10.55042,1.891618e-12,0,0,1.891618e-12,2.220446e-16,2.220446e-16,1.662695e-17,0,0,0,0,2.386716e-16,2.054177e-16,1.662695e-17,90,2.216927e-17,1.492696e-16,0,0,0,0,0,0
2.869963,5.789097,-10.533633,1.891618e-12,0,0,1.891618e-12,-3.330669e-16,-1.110223e-16,-1.496398e-17,0,0,0,0,-1.100184e-16,-3.340708e-16,1.120262e-16,-41.161865,1.493683e-16,1.965858e-16,0,0,0,0,0,0
2.917253,5.789097,-10.511813,1.891618e-12,0,0,1.891618e-12,0,2.220446e-16,2.138447e-17,0,0,0,0,2.240853e-16,-2.040721e-18,1.13063e-16,-50.451229,1.507507e-16,1.500751e-16,0,0,0,0,0,0
2.964544,5.789097,-10.485033,1.891618e-12,0,0,1.891618e-12,-1.110223e-16,-1.110223e-16,3.527078e-18,0,0,0,0,-1.074952e-16,-1.145494e-16,3.527078e-18,90,4.70277e-18,7.412684e-17,0,0,0,0,0,0
3.011834,5.789097,-10.454726,1.891618e-12,0,0,1.891618e-12,-4.440892e-16,-1.110223e-16,-2.123044e-17,0,0,0,0,-1.096745e-16,-4.454371e-16,1.678813e-16,-41.367432,2.238417e-16,2.67988e-16,0,0,0,0,0,0
3.059125,5.789097,-10.422791,1.891618e-12,0,0,1.891618e-12,-6.661338e-16,2.220446e-16,1.063757e-18,0,0,0,0,2.220459e-16,-6.661351e-16,4.440905e-16,-45.068623,5.921207e-16,5.337302e-16,0,0,0,0,0,0
3.106415,5.789097,-10.38837,1.891618e-12,0,0,1.891618e-12,0,-1.110223e-16,-3.367132e-17,0,0,0,0,9.413772e-18,-1.204361e-16,6.492492e-17,29.380157,8.656656e-17,8.360549e-17,0,0,0,0,0,0
3.153705,5.789097,-10.350679,1.891618e-12,0,0,1.891618e-12,2.220446e-16,0,9.025305e-18,0,0,0,0,2.224108e-16,-3.662417e-19,1.113885e-16,47.323753,1.485181e-16,1.483961e-16,0,0,0,0,0,0
3.200996,5.789097,-10.30859,1.891618e-12,0,0,1.891618e-12,-2.220446e-16,0,-5.084092e-19,0,0,0,0,1.164084e-21,-2.220458e-16,1.110235e-16,-44.868813,1.480313e-16,1.480309e-16,0,0,0,0,0,0
3.248286,5.789097,-10.259885,1.891618e-12,0,0,1.891618e-12,0,2.220446e-16,2.718884e-17,0,0,0,0,2.253253e-16,-3.280735e-18,1.14303e-16,-51.880322,1.52404e-16,1.513223e-16,0,0,0,0,0,0
3.295577,5.789097,-10.204806,1.891618e-12,0,0,1.891618e-12,2.220446e-16,-1.110223e-16,-3.360063e-17,0,0,0,0,2.254005e-16,-1.143782e-16,1.698894e-16,39.296429,2.265191e-16,1.996315e-16,0,0,0,0,0,0
3.342867,5.789097,-10.139144,1.891618e-12,0,0,1.891618e-12,-4.440892e-16,-4.440892e-16,2.722913e-17,0,0,0,0,-4.168601e-16,-4.713184e-16,2.722913e-17,90,3.630551e-17,2.977243e-16,0,0,0,0,0,0
1.451249,5.741807,-9.897938,1.891618e-12,0,0,1.891618e-12,0,0,4.361137e-19,0,0,0,0,4.361137e-19,-4.361137e-19,4.361137e-19,90,5.814849e-19,5.035807e-19,0,0,0,0,0,0
1.49854,5.741807,-9.95872,1.891618e-12,0,0,1.891618e-12,2.220446e-16,-2.220446e-16,-3.2179e-17,0,0,0,0,2.243642e-16,-2.243642e-16,2.243642e-16,40.877014,2.991523e-16,2.590735e-16,0,0,0,0,0,0
1.54583,5.741807,-10.019463,1.891618e-12,0,0,1.891618e-12,2.220446e-16,2.220446e-16,-1.097704e-17,0,0,0,0,2.330216e-16,2.110676e-16,1.097704e-17,0,1.463606e-17,1.485714e-16,0,0,0,0,0,0
1.593121,5.741807,-10.103449,1.891618e-12,0,0,1.891618e-12,-2.220446e-16,2.220446e-16,1.579018e-17,0,0,0,0,2.226053e-16,-2.226053e-16,2.226053e-16,-47.033802,2.968071e-16,2.570425e-16,0,0,0,0,0,0
1.640411,5.741807,-10.173456,1.891618e-12,0,0,1.891618e-12,2.220446e-16,0,1.845247e-18,0,0,0,0,2.220599e-16,-1.533341e-20,1.110376e-16,45.476097,1.480502e-16,1.480451e-16,0,0,0,0,0,0
1.687701,5.741807,-10.23346,1.891618e-12,0,0,1.891618e-12,0,2.220446e-16,-4.045219e-18,0,0,0,0,2.221183e-16,-7.367155e-20,1.11096e-16,-43.956646,1.48128e-16,1.481034e-16,0,0,0,0,0,0
1.734992,5.741807,-10.285997,1.891618e-12,0,0,1.891618e-12,-2.220446e-16,0,-4.07144e-17,0,0,0,0,7.230028e-18,-2.292746e-16,1.182523e-16,-34.930435,1.576698e-16,1.553159e-16,0,0,0,0,0,0
1.782282,5.741807,-10.332447,1.891618e-12,0,0,1.891618e-12,-2.220446e-16,4.440892e-16,-1.512828e-18,0,0,0,0,4.440927e-16,-2.22048e-16,3.330703e-16,-44.869881,4.440938e-16,3.916538e-16,0,0,0,0,0,0
1.829573,5.741807,-10.374183,1.891618e-12,0,0,1.891618e-12,-2.220446e-16,2.220446e-16,1.805275e-17,0,0,0,0,2.227773e-16,-2.227773e-16,2.227773e-16,-47.324028,2.970363e-16,2.57241e-16,0,0,0,0,0,0
1.876863,5.741807,-10.411493,1.891618e-12,0,0,1.891618e-12,-2.220446e-16,0,1.647318e-17,0,0,0,0,1.215469e-18,-2.232601e-16,1.122378e-16,-49.219906,1.496504e-16,1.492469e-16,0,0,0,0,0,0
1.924154,5.741807,-10.443543,1.891618e-12,0,0,1.891618e-12,-2.220446e-16,2.220446e-16,-1.220569e-17,0,0,0,0,2.223798e-16,-2.223798e-16,2.223798e-16,-43.426823,2.965064e-16,2.567821e-16,0,0,0,0,0,0
1.971444,5.741807,-10.470579,1.891618e-12,0,0,1.891618e-12,0,0,-1.307843e-17,0,0,0,0,1.307843e-17,-1.307843e-17,1.307843e-17,0,1.743791e-17,1.510167e-17,0,0,0,0,0,0
2.018735,5.741807,-10.494174,1.891618e-12,0,0,1.891618e-12,0,0,-5.082551e-17,0,0,0,0,5.082551e-17,-5.082551e-17,5.082551e-17,0,6.776735e-17,5.868825e-17,0,0,0,0,0,0
2.066025,5.741807,-10.516084,1.891618e-12,0,0,1.891618e-12,0,2.220446e-16,1.403337e-17,0,0,0,0,2.22928e-16,-8.834038e-19,1.119057e-16,-48.602028,1.492076e-16,1.48914e-16,0,0,0,0,0,0
2.113316,5.741807,-10.537207,1.891618e-12,0,0,1.891618e-12,-1.110223e-16,-1.110223e-16,-5.453014e-18,0,0,0,0,-1.055693e-16,-1.164753e-16,5.453014e-18,0,7.270685e-18,7.428222e-17,0,0,0,0,0,0
2.160606,5.741807,-10.556581,1.891618e-12,0,0,1.891618e-12,-1.110223e-16,-1.110223e-16,-2.234771e-17,0,0,0,0,-8.86746e-17,-1.3337e-16,2.234771e-17,0,2.979694e-17,7.838427e-17,0,0,0,0,0,0
2.207896,5.741807,-10.572748,1.891618e-12,0,0,1.891618e-12,2.220446e-16,0,1.355483e-17,0,0,0,0,2.22869e-16,-8.244008e-19,1.118467e-16,48.480427,1.491289e-16,1.488549e-16,0,0,0,0,0,0
2.255187,5.741807,-10.584635,1.891618e-12,0,0,1.891618e-12,-2.220446e-16,-1.110223e-16,-2.306101e-17,0,0,0,0,-1.064227e-16,-2.266442e-16,6.011072e-17,-33.720261,8.014762e-17,1.309339e-16,0,0,0,0,0,0
2.302477,5.741807,-10.592481,1.891618e-12,0,0,1.891618e-12,-1.110223e-16,-1.110223e-16,4.801483e-17,0,0,0,0,-6.300748e-17,-1.590371e-16,4.801483e-17,90,6.401977e-17,9.247756e-17,0,0,0,0,0,0
2.349768,5.741807,-10.597314,1.891618e-12,0,0,1.891618e-12,0,-1.110223e-16,-3.896335e-17,0,0,0,0,1.230942e-17,-1.233317e-16,6.782058e-17,27.467466,9.042743e-17,8.661635e-17,0,0,0,0,0,0
2.397058,5.741807,-10.59988,1.891618e-12,0,0,1.891618e-12,4.440892e-16,2.220446e-16,-1.384903e-17,0,0,0,0,4.449496e-16,2.211842e-16,1.118827e-16,41.444801,1.49177e-16,2.568932e-16,0,0,0,0,0,0
2.444349,5.741807,-10.600207,1.891618e-12,0,0,1.891618e-12,2.220446e-16,0,-3.048976e-17,0,0,0,0,2.261552e-16,-4.110566e-18,1.151329e-16,37.3218,1.535105e-16,1.521588e-16,0,0,0,0,0,0
2.491639,5.741807,-10.599641,1.891618e-12,0,0,1.891618e-12,0,0,1.411736e-17,0,0,0,0,1.411736e-17,-1.411736e-17,1.411736e-17,90,1.882315e-17,1.630133e-17,0,0,0,0,0,0
2.53893,5.741807,-10.598838,1.891618e-12,0,0,1.891618e-12,2.220446e-16,2.220446e-16,1.106555e-17,0,0,0,0,2.331102e-16,2.109791e-16,1.106555e-17,90,1.475407e-17,1.485802e-16,0,0,0,0,0,0
2.58622,5.741807,-10.597791,1.891618e-12,0,0,1.891618e-12,2.220446e-16,-1.110223e-16,-2.543e-17,0,0,0,0,2.23975e-16,-1.129527e-16,1.684639e-16,40.658943,2.246185e-16,1.980143e-16,0,0,0,0,0,0
2.633511,5.741807,-10.595094,1.891618e-12,0,0,1.891618e-12,2.220446e-16,-1.110223e-16,-1.648505e-17,0,0,0,0,2.228586e-16,-1.118362e-16,1.673474e-16,42.17337,2.231298e-16,1.967479e-16,0,0,0,0,0,0
2.680801,5.741807,-10.589265,1.891618e-12,0,0,1.891618e-12,2.220446e-16,2.220446e-16,-2.116175e-17,0,0,0,0,2.432063e-16,2.008828e-16,2.116175e-17,0,2.821567e-17,1.50033e-16,0,0,0,0,0,0
2.728091,5.741807,-10.579164,1.891618e-12,0,0,1.891618e-12,2.220446e-16,4.440892e-16,-1.935574e-17,0,0,0,0,4.457638e-16,2.2037e-16,1.126969e-16,-40.055199,1.502626e-16,2.573673e-16,0,0,0,0,0,0
2.775382,5.741807,-10.566663,1.891618e-12,0,0,1.891618e-12,0,0,9.172792e-18,0,0,0,0,9.172792e-18,-9.172792e-18,9.172792e-18,90,1.223039e-17,1.059183e-17,0,0,0,0,0,0
2.822672,5.741807,-10.552166,1.891618e-12,0,0,1.891618e-12,2.220446e-16,0,3.358791e-17,0,0,0,0,2.270141e-16,-4.969505e-18,1.159918e-16,53.416149,1.546557e-16,1.530261e-16,0,0,0,0,0,0
2.869963,5.741807,-10.534867,1.891618e-12,0,0,1.891618e-12,2.220446e-16,4.440892e-16,-3.956037e-17,0,0,0,0,4.509269e-16,2.152069e-16,1.1786e-16,-35.193794,1.571466e-16,2.604325e-16,0,0,0,0,0,0
2.917253,5.741807,-10.512926,1.891618e-12,0,0,1.891618e-12,0,0,-1.965406e-17,0,0,0,0,1.965406e-17,-1.965406e-17,1.965406e-17,0,2.620542e-17,2.269456e-17,0,0,0,0,0,0
2.964544,5.741807,-10.486413,1.891618e-12,0,0,1.891618e-12,2.220446e-16,-4.440892e-16,-7.856679e-18,0,0,0,0,2.221372e-16,-4.441819e-16,3.331596e-16,44.324352,4.442128e-16,3.917549e-16,0,0,0,0,0,0
3.011834,5.741807,-10.456506,1.891618e-12,0,0,1.891618e-12,6.661338e-16,0,-2.038642e-17,0,0,0,0,6.667571e-16,-6.233243e-19,3.336902e-16,43.248699,4.449203e-16,4.447127e-16,0,0,0,0,0,0
3.059125,5.741807,-10.425149,1.891618e-12,0,0,1.891618e-12,0,0,-3.418244e-18,0,0,0,0,3.418244e-18,-3.418244e-18,3.418244e-18,0,4.557659e-18,3.947049e-18,0,0,0,0,0,0
3.106415,5.741807,-10.391255,1.891618e-12,0,0,1.891618e-12,2.220446e-16,0,-1.225412e-17,0,0,0,0,2.227188e-16,-6.742288e-19,1.116965e-16,41.850727,1.489287e-16,1.487045e-16,0,0,0,0,0,0
3.153705,5.741807,-10.353867,1.891618e-12,0,0,1.891618e-12,-2.220446e-16,-1.110223e-16,-4.169515e-17,0,0,0,0,-9.710742e-17,-2.359595e-16,6.942603e-17,-26.544655,9.256804e-17,1.369401e-16,0,0,0,0,0,0
3.200996,5.741807,-10.311092,1.891618e-12,0,0,1.891618e-12,0,0,3.088914e-17,0,0,0,0,3.088914e-17,-3.088914e-17,3.088914e-17,90,4.118552e-17,3.566771e-17,0,0,0,0,0,0
3.248286,5.741807,-10.262142,1.891618e-12,0,0,1.891618e-12,2.220446e-16,0,2.093704e-18,0,0,0,0,2.220644e-16,-1.974022e-20,1.11042e-16,45.540188,1.480561e-16,1.480495e-16,0,0,0,0,0,0
3.295577,5.741807,-10.206377,1.891618e-12,0,0,1.891618e-12,-1.110223e-16,0,5.592268e-17,0,0,0,0,2.328501e-17,-1.343073e-16,7.879616e-17,-67.605797,1.050615e-16,9.822421e-17,0,0,0,0,0,0
3.342867,5.741807,-10.139387,1.891618e-12,0,0,1.891618e-12,4.440892e-16,2.220446e-16,-5.08975e-17,0,0,0,0,4.552001e-16,2.109338e-16,1.221332e-16,32.6856,1.628442e-16,2.630447e-16,0,0,0,0,0,0
1.451249,5.694516,-9.9001,1.891618e-12,0,0,1.891618e-12,-1.110223e-16,0,-5.376434e-17,0,0,0,0,2.176816e-17,-1.327905e-16,7.727932e-17,-22.957909,1.030391e-16,9.660403e-17,0,0,0,0,0,0
1.49854,5.694516,-9.96078,1.891618e-12,0,0,1.891618e-12,2.220446e-16,2.220446e-16,-1.917221e-17,0,0,0,0,2.412168e-16,2.028724e-16,1.917221e-17,0,2.556294e-17,1.49676e-16,0,0,0,0,0,0
1.54583,5.694516,-10.021863,1.891618e-12,0,0,1.891618e-12,2.220446e-16,2.220446e-16,-3.045552e-17,0,0,0,0,2.525001e-16,1.915891e-16,3.045552e-17,0,4.060736e-17,1.521497e-16,0,0,0,0,0,0
1.593121,5.694516,-10.106609,1.891618e-12,0,0,1.891618e-12,0,2.220446e-16,-3.884009e-17,0,0,0,0,2.286425e-16,-6.597868e-18,1.176202e-16,-35.359051,1.568269e-16,1.546745e-16,0,0,0,0,0,0
1.640411,5.694516,-10.175464,1.891618e-12,0,0,1.891618e-12,-1.110223e-16,2.220446e-16,-5.247641e-17,0,0,0,0,2.301169e-16,-1.190946e-16,1.746057e-16,-36.254913,2.328076e-16,2.049856e-16,0,0,0,0,0,0
1.687701,5.694516,-10.23454,1.891618e-12,0,0,1.891618e-12,-3.330669e-16,2.220446e-16,3.689755e-19,0,0,0,0,2.220448e-16,-3.330671e-16,2.77556e-16,-45.038082,3.700747e-16,3.226236e-16,0,0,0,0,0,0
1.734992,5.694516,-10.286443,1.891618e-12,0,0,1.891618e-12,0,-2.220446e-16,-5.372684e-18,0,0,0,0,1.299237e-19,-2.221745e-16,1.111522e-16,43.614727,1.48203e-16,1.481597e-16,0,0,0,0,0,0
1.782282,5.694516,-10.332759,1.891618e-12,0,0,1.891618e-12,0,2.220446e-16,-1.682699e-17,0,0,0,0,2.233126e-16,-1.267943e-18,1.122902e-16,-40.690807,1.497203e-16,1.492995e-16,0,0,0,0,0,0
1.829573,5.694516,-10.374915,1.891618e-12,0,0,1.891618e-12,0,-2.220446e-16,-4.438686e-17,0,0,0,0,8.544183e-18,-2.305888e-16,1.195665e-16,34.104202,1.59422e-16,1.566516e-16,0,0,0,0,0,0
1.876863,5.694516,-10.412688,1.891618e-12,0,0,1.891618e-12,0,2.220446e-16,-1.810374e-17,0,0,0,0,2.23511e-16,-1.466351e-18,1.124886e-16,-40.369316,1.499849e-16,1.494985e-16,0,0,0,0,0,0
1.924154,5.694516,-10.444865,1.891618e-12,0,0,1.891618e-12,-2.220446e-16,0,-3.117165e-17,0,0,0,0,4.293019e-18,-2.263376e-16,1.153153e-16,-37.158443,1.537538e-16,1.523429e-16,0,0,0,0,0,0
1.971444,5.694516,-10.471727,1.891618e-12,0,0,1.891618e-12,0,-1.110223e-16,5.457777e-17,0,0,0,0,2.233627e-17,-1.333586e-16,7.784742e-17,67.257118,1.037966e-16,9.721031e-17,0,0,0,0,0,0
2.018735,5.694516,-10.494989,1.891618e-12,0,0,1.891618e-12,2.220446e-16,2.220446e-16,2.178126e-17,0,0,0,0,2.438259e-16,2.002634e-16,2.178126e-17,90,2.904168e-17,1.501511e-16,0,0,0,0,0,0
2.066025,5.694516,-10.516795,1.891618e-12,0,0,1.891618e-12,0,2.220446e-16,1.835492e-17,0,0,0,0,2.235517e-16,-1.507049e-18,1.125293e-16,-49.693794,1.500391e-16,1.495393e-16,0,0,0,0,0,0
2.113316,5.694516,-10.538039,1.891618e-12,0,0,1.891618e-12,0,-2.220446e-16,-1.912639e-17,0,0,0,0,1.635455e-18,-2.236801e-16,1.126578e-16,40.112652,1.502103e-16,1.496682e-16,0,0,0,0,0,0
2.160606,5.694516,-10.557539,1.891618e-12,0,0,1.891618e-12,-2.220446e-16,2.220446e-16,-6.773141e-18,0,0,0,0,2.221479e-16,-2.221479e-16,2.221479e-16,-44.126408,2.961972e-16,2.565143e-16,0,0,0,0,0,0
2.207896,5.694516,-10.573449,1.891618e-12,0,0,1.891618e-12,0,2.220446e-16,-5.811126e-17,0,0,0,0,2.363334e-16,-1.428879e-17,1.253111e-16,-31.185776,1.670815e-16,1.62528e-16,0,0,0,0,0,0
2.255187,5.694516,-10.584509,1.891618e-12,0,0,1.891618e-12,2.220446e-16,0,2.381167e-18,0,0,0,0,2.220701e-16,-2.553228e-20,1.110478e-16,45.614334,1.480638e-16,1.480553e-16,0,0,0,0,0,0
2.302477,5.694516,-10.591219,1.891618e-12,0,0,1.891618e-12,0,2.220446e-16,9.260265e-18,0,0,0,0,2.224301e-16,-3.855256e-19,1.114078e-16,-47.383976,1.485438e-16,1.484154e-16,0,0,0,0,0,0
2.349768,5.694516,-10.595091,1.891618e-12,0,0,1.891618e-12,-2.220446e-16,2.220446e-16,-3.19468e-17,0,0,0,0,2.24331e-16,-2.24331e-16,2.24331e-16,-40.906361,2.99108e-16,2.590351e-16,0,0,0,0,0,0
2.397058,5.694516,-10.59727,1.891618e-12,0,0,1.891618e-12,0,0,-5.971596e-17,0,0,0,0,5.971596e-17,-5.971596e-17,5.971596e-17,0,7.962127e-17,6.895405e-17,0,0,0,0,0,0
2.444349,5.694516,-10.598017,1.891618e-12,0,0,1.891618e-12,-1.110223e-16,0,4.963853e-17,0,0,0,0,1.895677e-17,-1.299791e-16,7.446792e-17,-65.901672,9.929056e-17,9.361363e-17,0,0,0,0,0,0
2.491639,5.694516,-10.598362,1.891618e-12,0,0,1.891618e-12,0,0,-1.666939e-17,0,0,0,0,1.666939e-17,-1.666939e-17,1.666939e-17,0,2.222586e-17,1.924816e-17,0,0,0,0,0,0
2.53893,5.694516,-10.598716,1.891618e-12,0,0,1.891618e-12,0,0,1.752159e-17,0,0,0,0,1.752159e-17,-1.752159e-17,1.752159e-17,90,2.336212e-17,2.023219e-17,0,0,0,0,0,0
2.58622,5.694516,-10.598753,1.891618e-12,0,0,1.891618e-12,2.220446e-16,2.220446e-16,2.465218e-17,0,0,0,0,2.466968e-16,1.973924e-16,2.465218e-17,90,3.286958e-17,1.507419e-16,0,0,0,0,0,0
2.633511,5.694516,-10.597104,1.891618e-12,0,0,1.891618e-12,2.220446e-16,-1.110223e-16,-2.993173e-17,0,0,0,0,2.247131e-16,-1.136908e-16,1.69202e-16,39.905396,2.256026e-16,1.988516e-16,0,0,0,0,0,0
2.680801,5.694516,-10.592017,1.891618e-12,0,0,1.891618e-12,-2.220446e-16,2.220446e-16,-1.403699e-18,0,0,0,0,2.220491e-16,-2.220491e-16,2.220491e-16,-44.818897,2.960654e-16,2.564002e-16,0,0,0,0,0,0
2.728091,5.694516,-10.582219,1.891618e-12,0,0,1.891618e-12,-2.220446e-16,-1.110223e-16,-3.795458e-17,0,0,0,0,-9.928736e-17,-2.337796e-16,6.72461e-17,-27.819229,8.966146e-17,1.354819e-16,0,0,0,0,0,0
2.775382,5.694516,-10.569315,1.891618e-12,0,0,1.891618e-12,0,0,2.484069e-17,0,0,0,0,2.484069e-17,-2.484069e-17,2.484069e-17,90,3.312092e-17,2.868356e-17,0,0,0,0,0,0
2.822672,5.694516,-10.553891,1.891618e-12,0,0,1.891618e-12,0,0,-4.46076e-18,0,0,0,0,4.46076e-18,-4.46076e-18,4.46076e-18,0,5.947679e-18,5.150842e-18,0,0,0,0,0,0
2.869963,5.694516,-10.53562,1.891618e-12,0,0,1.891618e-12,2.220446e-16,0,2.129044e-17,0,0,0,0,2.240676e-16,-2.022974e-18,1.130453e-16,50.42783,1.50727e-16,1.500573e-16,0,0,0,0,0,0
2.917253,5.694516,-10.513285,1.891618e-12,0,0,1.891618e-12,0,0,-9.102559e-18,0,0,0,0,9.102559e-18,-9.102559e-18,9.102559e-18,0,1.213674e-17,1.051073e-17,0,0,0,0,0,0
2.964544,5.694516,-10.486797,1.891618e-12,0,0,1.891618e-12,-2.220446e-16,0,2.411694e-18,0,0,0,0,2.619106e-20,-2.220708e-16,1.110485e-16,-45.622208,1.480647e-16,1.480559e-16,0,0,0,0,0,0
3.011834,5.694516,-10.457391,1.891618e-12,0,0,1.891618e-12,0,-1.110223e-16,-3.184168e-17,0,0,0,0,8.484008e-18,-1.195063e-16,6.399516e-17,30.080521,8.532688e-17,8.264416e-17,0,0,0,0,0,0
3.059125,5.694516,-10.426636,1.891618e-12,0,0,1.891618e-12,-4.440892e-16,0,-3.115971e-17,0,0,0,0,2.175676e-18,-4.462649e-16,2.242203e-16,-41.005898,2.989604e-16,2.982378e-16,0,0,0,0,0,0
3.106415,5.694516,-10.393504,1.891618e-12,0,0,1.891618e-12,2.220446e-16,-1.110223e-16,-6.635729e-18,0,0,0,0,2.221768e-16,-1.111545e-16,1.666656e-16,43.859093,2.222208e-16,1.959748e-16,0,0,0,0,0,0
3.153705,5.694516,-10.356976,1.891618e-12,0,0,1.891618e-12,0,-1.110223e-16,-1.311444e-17,0,0,0,0,1.528103e-18,-1.125504e-16,5.703925e-17,38.353832,7.605234e-17,7.554813e-17,0,0,0,0,0,0
3.200996,5.694516,-10.314351,1.891618e-12,0,0,1.891618e-12,-2.220446e-16,0,7.696297e-18,0,0,0,0,2.664419e-19,-2.22311e-16,1.112887e-16,-46.982758,1.48385e-16,1.482963e-16,0,0,0,0,0,0
3.248286,5.694516,-10.265466,1.891618e-12,0,0,1.891618e-12,0,2.220446e-16,1.50091e-17,0,0,0,0,2.230546e-16,-1.009946e-18,1.120322e-16,-48.849567,1.493763e-16,1.490408e-16,0,0,0,0,0,0
3.295577,5.694516,-10.209338,1.891618e-12,0,0,1.891618e-12,2.220446e-16,2.220446e-16,-2.828279e-17,0,0,0,0,2.503274e-16,1.937618e-16,2.828279e-17,0,3.771038e-17,1.515894e-16,0,0,0,0,0,0
3.342867,5.694516,-10.140838,1.891618e-12,0,0,1.891618e-12,6.661338e-16,2.220446e-16,-4.02065e-17,0,0,0,0,6.697446e-16,2.184338e-16,2.256554e-16,39.868217,3.008739e-16,3.94392e-16,0,0,0,0,0,0
1.451249,5.647226,-9.899422,1.891618e-12,0,0,1.891618e-12,2.220446e-16,2.220446e-16,7.598287e-17,0,0,0,0,2.980275e-16,1.460617e-16,7.598287e-17,90,1.013105e-16,1.720775e-16,0,0,0,0,0,0
1.49854,5.647226,-9.961616,1.891618e-12,0,0,1.891618e-12,2.220446e-16,2.220446e-16,-5.119644e-17,0,0,0,0,2.73241e-16,1.708482e-16,5.119644e-17,0,6.826192e-17,1.593975e-16,0,0,0,0,0,0
1.54583,5.647226,-10.023952,1.891618e-12,0,0,1.891618e-12,-1.110223e-16,0,-2.651098e-17,0,0,0,0,6.005677e-18,-1.17028e-16,6.151683e-17,-32.235909,8.202244e-17,8.009563e-17,0,0,0,0,0,0
1.593121,5.647226,-10.110117,1.891618e-12,0,0,1.891618e-12,-1.110223e-16,2.220446e-16,-1.226035e-17,0,0,0,0,2.224953e-16,-1.11473e-16,1.669842e-16,-42.894714,2.226455e-16,1.96336e-16,0,0,0,0,0,0
1.640411,5.647226,-10.178481,1.891618e-12,0,0,1.891618e-12,-1.110223e-16,-1.110223e-16,-3.113151e-17,0,0,0,0,-7.98908e-17,-1.421538e-16,3.113151e-17,0,4.150867e-17,8.228261e-17,0,0,0,0,0,0
1.687701,5.647226,-10.236504,1.891618e-12,0,0,1.891618e-12,2.220446e-16,0,-3.82209e-17,0,0,0,0,2.284395e-16,-6.394856e-18,1.174172e-16,35.501648,1.565562e-16,1.544687e-16,0,0,0,0,0,0
1.734992,5.647226,-10.287766,1.891618e-12,0,0,1.891618e-12,2.220446e-16,0,2.425064e-17,0,0,0,0,2.246623e-16,-2.617677e-18,1.1364e-16,51.160801,1.5152e-16,1.50655e-16,0,0,0,0,0,0
1.782282,5.647226,-10.33396,1.891618e-12,0,0,1.891618e-12,0,0,7.511755e-18,0,0,0,0,7.511755e-18,-7.511755e-18,7.511755e-18,90,1.001567e-17,8.673827e-18,0,0,0,0,0,0
1.829573,5.647226,-10.37636,1.891618e-12,0,0,1.891618e-12,2.220446e-16,2.220446e-16,-1.086935e-18,0,0,0,0,2.231315e-16,2.209577e-16,1.086935e-18,0,1.449247e-18,1.480351e-16,0,0,0,0,0,0
1.876863,5.647226,-10.414247,1.891618e-12,0,0,1.891618e-12,-2.220446e-16,0,5.59478e-17,0,0,0,0,1.330029e-17,-2.353449e-16,1.243226e-16,-58.37252,1.657635e-16,1.615127e-16,0,0,0,0,0,0
1.924154,5.647226,-10.446311,1.891618e-12,0,0,1.891618e-12,0,2.220446e-16,2.198608e-17,0,0,0,0,2.242006e-16,-2.15605e-18,1.131784e-16,-50.600765,1.509045e-16,1.501909e-16,0,0,0,0,0,0
1.971444,5.647226,-10.472953,1.891618e-12,0,0,1.891618e-12,-2.220446e-16,-4.440892e-16,2.472045e-17,0,0,0,0,-2.193257e-16,-4.468081e-16,1.137412e-16,51.276409,1.516549e-16,2.579791e-16,0,0,0,0,0,0
2.018735,5.647226,-10.496024,1.891618e-12,0,0,1.891618e-12,-1.110223e-16,2.220446e-16,-1.780763e-18,0,0,0,0,2.220541e-16,-1.110318e-16,1.66543e-16,-44.693676,2.220573e-16,1.958357e-16,0,0,0,0,0,0
2.066025,5.647226,-10.517676,1.891618e-12,0,0,1.891618e-12,0,0,1.241758e-17,0,0,0,0,1.241758e-17,-1.241758e-17,1.241758e-17,90,1.655677e-17,1.433858e-17,0,0,0,0,0,0
2.113316,5.647226,-10.538581,1.891618e-12,0,0,1.891618e-12,-1.110223e-16,2.220446e-16,-6.163238e-18,0,0,0,0,2.221586e-16,-1.111363e-16,1.666475e-16,-43.940254,2.221966e-16,1.959542e-16,0,0,0,0,0,0
2.160606,5.647226,-10.557627,1.891618e-12,0,0,1.891618e-12,2.220446e-16,0,5.59262e-17,0,0,0,0,2.353352e-16,-1.329058e-17,1.243129e-16,58.368076,1.657505e-16,1.615027e-16,0,0,0,0,0,0
2.207896,5.647226,-10.572742,1.891618e-12,0,0,1.891618e-12,2.220446e-16,2.220446e-16,-4.066106e-17,0,0,0,0,2.627057e-16,1.813835e-16,4.066106e-17,0,5.421474e-17,1.552972e-16,0,0,0,0,0,0
2.255187,5.647226,-10.582958,1.891618e-12,0,0,1.891618e-12,2.220446e-16,2.220446e-16,2.14111e-18,0,0,0,0,2.241857e-16,2.199035e-16,2.14111e-18,90,2.854814e-18,1.480504e-16,0,0,0,0,0,0
2.302477,5.647226,-10.589185,1.891618e-12,0,0,1.891618e-12,2.220446e-16,2.220446e-16,-2.489019e-17,0,0,0,0,2.469348e-16,1.971544e-16,2.489019e-17,0,3.318692e-17,1.50794e-16,0,0,0,0,0,0
2.349768,5.647226,-10.592979,1.891618e-12,0,0,1.891618e-12,0,2.220446e-16,-9.414866e-18,0,0,0,0,2.224431e-16,-3.984826e-19,1.114208e-16,-42.576412,1.48561e-16,1.484284e-16,0,0,0,0,0,0
2.397058,5.647226,-10.59577,1.891618e-12,0,0,1.891618e-12,-1.110223e-16,0,4.721465e-18,0,0,0,0,2.004288e-19,-1.112227e-16,5.571158e-17,-47.430779,7.428211e-17,7.421539e-17,0,0,0,0,0,0
2.444349,5.647226,-10.597624,1.891618e-12,0,0,1.891618e-12,2.220446e-16,-1.110223e-16,-1.807369e-17,0,0,0,0,2.230225e-16,-1.120002e-16,1.675113e-16,41.903,2.233485e-16,1.969339e-16,0,0,0,0,0,0
2.491639,5.647226,-10.598898,1.891618e-12,0,0,1.891618e-12,0,0,-1.402046e-17,0,0,0,0,1.402046e-17,-1.402046e-17,1.402046e-17,0,1.869395e-17,1.618943e-17,0,0,0,0,0,0
2.53893,5.647226,-10.599986,1.891618e-12,0,0,1.891618e-12,2.220446e-16,-1.110223e-16,1.505466e-17,0,0,0,0,2.227237e-16,-1.117014e-16,1.672125e-16,47.582756,2.229501e-16,1.96595e-16,0,0,0,0,0,0
2.58622,5.647226,-10.600523,1.891618e-12,0,0,1.891618e-12,-4.440892e-16,-1.110223e-16,-1.398847e-17,0,0,0,0,-1.104358e-16,-4.446757e-16,1.671199e-16,-42.59927,2.228266e-16,2.673528e-16,0,0,0,0,0,0
2.633511,5.647226,-10.599305,1.891618e-12,0,0,1.891618e-12,2.220446e-16,-1.110223e-16,-2.954612e-17,0,0,0,0,2.246453e-16,-1.13623e-16,1.691342e-16,39.969677,2.255122e-16,1.987747e-16,0,0,0,0,0,0
2.680801,5.647226,-10.594655,1.891618e-12,0,0,1.891618e-12,2.220446e-16,2.220446e-16,-7.792238e-18,0,0,0,0,2.298368e-16,2.142524e-16,7.792238e-18,0,1.038965e-17,1.483029e-16,0,0,0,0,0,0
2.728091,5.647226,-10.585031,1.891618e-12,0,0,1.891618e-12,2.220446e-16,0,-3.436045e-17,0,0,0,0,2.272402e-16,-5.195562e-18,1.162179e-16,36.401577,1.549571e-16,1.532547e-16,0,0,0,0,0,0
2.775382,5.647226,-10.571821,1.891618e-12,0,0,1.891618e-12,-1.110223e-16,2.220446e-16,4.717612e-17,0,0,0,0,2.285978e-16,-1.175755e-16,1.730866e-16,-52.908264,2.307821e-16,2.032606e-16,0,0,0,0,0,0
2.822672,5.647226,-10.555663,1.891618e-12,0,0,1.891618e-12,0,2.220446e-16,2.777365e-17,0,0,0,0,2.254659e-16,-3.421253e-18,1.144436e-16,-52.022511,1.525914e-16,1.514639e-16,0,0,0,0,0,0
2.869963,5.647226,-10.53655,1.891618e-12,0,0,1.891618e-12,0,2.220446e-16,1.961754e-17,0,0,0,0,2.237645e-16,-1.719879e-18,1.127422e-16,-50.010338,1.503229e-16,1.497529e-16,0,0,0,0,0,0
2.917253,5.647226,-10.513877,1.891618e-12,0,0,1.891618e-12,-1.110223e-16,2.220446e-16,2.132724e-17,0,0,0,0,2.234047e-16,-1.123824e-16,1.678936e-16,-48.648952,2.23858e-16,1.973674e-16,0,0,0,0,0,0
2.964544,5.647226,-10.48763,1.891618e-12,0,0,1.891618e-12,2.220446e-16,2.220446e-16,4.111329e-18,0,0,0,0,2.261559e-16,2.179333e-16,4.111329e-18,90,5.481772e-18,1.481058e-16,0,0,0,0,0,0
3.011834,5.647226,-10.458767,1.891618e-12,0,0,1.891618e-12,0,0,2.121768e-17,0,0,0,0,2.121768e-17,-2.121768e-17,2.121768e-17,90,2.829024e-17,2.450007e-17,0,0,0,0,0,0
3.059125,5.647226,-10.428491,1.891618e-12,0,0,1.891618e-12,0,0,1.553134e-18,0,0,0,0,1.553134e-18,-1.553134e-18,1.553134e-18,90,2.070845e-18,1.793404e-18,0,0,0,0,0,0
3.106415,5.647226,-10.395843,1.891618e-12,0,0,1.891618e-12,2.220446e-16,2.220446e-16,2.435042e-17,0,0,0,0,2.46395e-16,1.976942e-16,2.435042e-17,90,3.246723e-17,1.506765e-16,0,0,0,0,0,0
3.153705,5.647226,-10.359906,1.891618e-12,0,0,1.891618e-12,0,4.440892e-16,-2.193992e-17,0,0,0,0,4.451705e-16,-1.081293e-18,2.231259e-16,-42.178501,2.975012e-16,2.971414e-16,0,0,0,0,0,0
3.200996,5.647226,-10.31781,1.891618e-12,0,0,1.891618e-12,2.220446e-16,2.220446e-16,-5.447955e-17,0,0,0,0,2.765241e-16,1.67565e-16,5.447955e-17,0,7.263941e-17,1.608421e-16,0,0,0,0,0,0
3.248286,5.647226,-10.268952,1.891618e-12,0,0,1.891618e-12,0,2.220446e-16,-1.257739e-17,0,0,0,0,2.227548e-16,-7.101564e-19,1.117325e-16,-41.768341,1.489766e-16,1.487405e-16,0,0,0,0,0,0
3.295577,5.647226,-10.212621,1.891618e-12,0,0,1.891618e-12,2.220446e-16,0,-6.216656e-18,0,0,0,0,2.222185e-16,-1.739135e-19,1.111962e-16,43.397545,1.482616e-16,1.482037e-16,0,0,0,0,0,0
3.342867,5.647226,-10.143391,1.891618e-12,0,0,1.891618e-12,0,0,-8.294278e-18,0,0,0,0,8.294278e-18,-8.294278e-18,8.294278e-18,0,1.105904e-17,9.577407e-18,0,0,0,0,0,0
1.451249,5.599935,-9.896632,1.891618e-12,0,0,1.891618e-12,2.220446e-16,-1.110223e-16,-4.073415e-17,0,0,0,0,2.26954e-16,-1.159317e-16,1.714429e-16,38.127651,2.285905e-16,2.013946e-16,0,0,0,0,0,0
1.49854,5.599935,-9.960873,1.891618e-12,0,0,1.891618e-12,0,-2.220446e-16,9.4323e-18,0,0,0,0,3.999571e-19,-2.224446e-16,1.114223e-16,47.428055,1.48563e-16,1.484299e-16,0,0,0,0,0,0
1.54583,5.599935,-10.024483,1.891618e-12,0,0,1.891618e-12,0,-1.110223e-16,1.765181e-17,0,0,0,0,2.738949e-18,-1.137612e-16,5.82501e-17,53.819984,7.76668e-17,7.67701e-17,0,0,0,0,0,0
1.593121,5.599935,-10.111662,1.891618e-12,0,0,1.891618e-12,-2.220446e-16,-1.110223e-16,1.582577e-17,0,0,0,0,-1.088105e-16,-2.242564e-16,5.772299e-17,-52.956207,7.696398e-17,1.294934e-16,0,0,0,0,0,0
1.640411,5.599935,-10.180654,1.891618e-12,0,0,1.891618e-12,2.220446e-16,0,-1.399867e-17,0,0,0,0,2.229237e-16,-8.790575e-19,1.119014e-16,41.406784,1.492018e-16,1.489097e-16,0,0,0,0,0,0
1.687701,5.599935,-10.238313,1.891618e-12,0,0,1.891618e-12,4.440892e-16,2.220446e-16,-1.524176e-17,0,0,0,0,4.451306e-16,2.210033e-16,1.120637e-16,41.091492,1.494182e-16,2.569984e-16,0,0,0,0,0,0
1.734992,5.599935,-10.28951,1.891618e-12,0,0,1.891618e-12,0,2.220446e-16,2.741693e-17,0,0,0,0,2.253798e-16,-3.335207e-18,1.143575e-16,-51.935822,1.524767e-16,1.513772e-16,0,0,0,0,0,0
1.782282,5.599935,-10.335888,1.891618e-12,0,0,1.891618e-12,0,-1.110223e-16,-1.522452e-17,0,0,0,0,2.049893e-18,-1.130722e-16,5.756104e-17,37.331573,7.674806e-17,7.607397e-17,0,0,0,0,0,0
1.829573,5.599935,-10.378439,1.891618e-12,0,0,1.891618e-12,2.220446e-16,2.220446e-16,-2.410546e-18,0,0,0,0,2.244552e-16,2.196341e-16,2.410546e-18,0,3.214062e-18,1.480559e-16,0,0,0,0,0,0
1.876863,5.599935,-10.416361,1.891618e-12,0,0,1.891618e-12,2.220446e-16,-1.110223e-16,-3.234944e-17,0,0,0,0,2.251575e-16,-1.141352e-16,1.696463e-16,39.503544,2.261951e-16,1.993558e-16,0,0,0,0,0,0
1.924154,5.599935,-10.448436,1.891618e-12,0,0,1.891618e-12,0,0,-1.464647e-17,0,0,0,0,1.464647e-17,-1.464647e-17,1.464647e-17,0,1.952862e-17,1.691228e-17,0,0,0,0,0,0
1.971444,5.599935,-10.475095,1.891618e-12,0,0,1.891618e-12,-1.110223e-16,2.220446e-16,4.543058e-17,0,0,0,0,2.281302e-16,-1.171079e-16,1.72619e-16,-52.629539,2.301587e-16,2.027297e-16,0,0,0,0,0,0
2.018735,5.599935,-10.498058,1.891618e-12,0,0,1.891618e-12,0,2.220446e-16,1.558654e-18,0,0,0,0,2.220555e-16,-1.094052e-20,1.110332e-16,-45.402164,1.480443e-16,1.480407e-16,0,0,0,0,0,0
2.066025,5.599935,-10.519323,1.891618e-12,0,0,1.891618e-12,0,2.220446e-16,4.548985e-19,0,0,0,0,2.220455e-16,-9.31938e-22,1.110232e-16,-45.117378,1.48031e-16,1.480307e-16,0,0,0,0,0,0
2.113316,5.599935,-10.539531,1.891618e-12,0,0,1.891618e-12,-1.110223e-16,0,-4.51789e-17,0,0,0,0,1.606134e-17,-1.270836e-16,7.157249e-17,-25.429432,9.542999e-17,9.055226e-17,0,0,0,0,0,0
2.160606,5.599935,-10.557728,1.891618e-12,0,0,1.891618e-12,-2.220446e-16,2.220446e-16,1.609757e-17,0,0,0,0,2.226274e-16,-2.226274e-16,2.226274e-16,-47.073257,2.968365e-16,2.570679e-16,0,0,0,0,0,0
2.207896,5.599935,-10.572174,1.891618e-12,0,0,1.891618e-12,-1.110223e-16,2.220446e-16,3.920875e-17,0,0,0,0,2.26598e-16,-1.155757e-16,1.710869e-16,-51.624237,2.281158e-16,2.009905e-16,0,0,0,0,0,0
2.255187,5.599935,-10.582235,1.891618e-12,0,0,1.891618e-12,2.220446e-16,-1.110223e-16,-1.046322e-17,0,0,0,0,2.22373e-16,-1.113507e-16,1.668618e-16,43.202431,2.224824e-16,1.961973e-16,0,0,0,0,0,0
2.302477,5.599935,-10.58901,1.891618e-12,0,0,1.891618e-12,-1.110223e-16,0,-3.144866e-17,0,0,0,0,8.289368e-18,-1.193117e-16,6.380052e-17,-30.233601,8.506736e-17,8.244327e-17,0,0,0,0,0,0
2.349768,5.599935,-10.594008,1.891618e-12,0,0,1.891618e-12,2.220446e-16,0,1.814041e-17,0,0,0,0,2.235169e-16,-1.472259e-18,1.124946e-16,49.6399,1.499928e-16,1.495044e-16,0,0,0,0,0,0
2.397058,5.599935,-10.598404,1.891618e-12,0,0,1.891618e-12,-1.110223e-16,0,8.120909e-18,0,0,0,0,5.908726e-19,-1.116132e-16,5.610202e-17,-49.161472,7.48027e-17,7.460652e-17,0,0,0,0,0,0
2.444349,5.599935,-10.601736,1.891618e-12,0,0,1.891618e-12,2.220446e-16,0,-1.617344e-17,0,0,0,0,2.232165e-16,-1.171868e-18,1.121942e-16,40.855801,1.495922e-16,1.492031e-16,0,0,0,0,0,0
2.491639,5.599935,-10.60376,1.891618e-12,0,0,1.891618e-12,-2.220446e-16,0,-8.389826e-18,0,0,0,0,3.165534e-19,-2.223612e-16,1.113389e-16,-42.839218,1.484518e-16,1.483464e-16,0,0,0,0,0,0
2.53893,5.599935,-10.604757,1.891618e-12,0,0,1.891618e-12,-1.110223e-16,2.220446e-16,-2.178088e-17,0,0,0,0,2.234629e-16,-1.124406e-16,1.679518e-16,-41.274296,2.239357e-16,1.974334e-16,0,0,0,0,0,0
2.58622,5.599935,-10.604542,1.891618e-12,0,0,1.891618e-12,2.220446e-16,-1.110223e-16,-3.297474e-17,0,0,0,0,2.252778e-16,-1.142555e-16,1.697667e-16,39.39996,2.263556e-16,1.994923e-16,0,0,0,0,0,0
2.633511,5.599935,-10.602437,1.891618e-12,0,0,1.891618e-12,0,4.440892e-16,-3.496209e-18,0,0,0,0,4.441167e-16,-2.752312e-20,2.220721e-16,-44.548962,2.960962e-16,2.96087e-16,0,0,0,0,0,0
2.680801,5.599935,-10.597237,1.891618e-12,0,0,1.891618e-12,2.220446e-16,4.440892e-16,-7.460653e-18,0,0,0,0,4.443396e-16,2.217942e-16,1.112727e-16,-43.077763,1.483636e-16,2.565397e-16,0,0,0,0,0,0
2.728091,5.599935,-10.587478,1.891618e-12,0,0,1.891618e-12,0,-2.220446e-16,-3.195302e-17,0,0,0,0,4.506686e-18,-2.265513e-16,1.15529e-16,36.971901,1.540386e-16,1.525586e-16,0,0,0,0,0,0
2.775382,5.599935,-10.573984,1.891618e-12,0,0,1.891618e-12,2.220446e-16,2.220446e-16,1.950051e-18,0,0,0,0,2.239947e-16,2.200945e-16,1.950051e-18,90,2.600068e-18,1.480469e-16,0,0,0,0,0,0
2.822672,5.599935,-10.557378,1.891618e-12,0,0,1.891618e-12,-1.110223e-16,2.220446e-16,-1.446098e-17,0,0,0,0,2.226713e-16,-1.11649e-16,1.671601e-16,-42.518578,2.228802e-16,1.965356e-16,0,0,0,0,0,0
2.869963,5.599935,-10.537774,1.891618e-12,0,0,1.891618e-12,2.220446e-16,2.220446e-16,3.276642e-17,0,0,0,0,2.54811e-16,1.892782e-16,3.276642e-17,90,4.368856e-17,1.527885e-16,0,0,0,0,0,0
2.917253,5.599935,-10.51512,1.891618e-12,0,0,1.891618e-12,-1.110223e-16,2.220446e-16,3.143514e-17,0,0,0,0,2.249855e-16,-1.139632e-16,1.694744e-16,-50.344738,2.259658e-16,1.991606e-16,0,0,0,0,0,0
2.964544,5.599935,-10.489533,1.891618e-12,0,0,1.891618e-12,-1.110223e-16,2.220446e-16,-3.5679e-17,0,0,0,0,2.258237e-16,-1.148014e-16,1.703126e-16,-38.953728,2.270835e-16,2.001118e-16,0,0,0,0,0,0
3.011834,5.599935,-10.461471,1.891618e-12,0,0,1.891618e-12,2.220446e-16,0,1.269825e-18,0,0,0,0,2.220519e-16,-7.261611e-21,1.110296e-16,45.327648,1.480394e-16,1.48037e-16,0,0,0,0,0,0
3.059125,5.599935,-10.431449,1.891618e-12,0,0,1.891618e-12,0,-1.110223e-16,-2.916376e-17,0,0,0,0,7.194614e-18,-1.182169e-16,6.270576e-17,31.142008,8.360768e-17,8.131565e-17,0,0,0,0,0,0
3.106415,5.599935,-10.398746,1.891618e-12,0,0,1.891618e-12,0,-1.110223e-16,-6.082525e-18,0,0,0,0,3.322461e-19,-1.113546e-16,5.58434e-17,41.873436,7.445786e-17,7.434736e-17,0,0,0,0,0,0
3.153705,5.599935,-10.362525,1.891618e-12,0,0,1.891618e-12,-4.440892e-16,0,-4.481541e-18,0,0,0,0,4.522101e-20,-4.441344e-16,2.220898e-16,-44.421875,2.961198e-16,2.961047e-16,0,0,0,0,0,0
3.200996,5.599935,-10.320542,1.891618e-12,0,0,1.891618e-12,-2.220446e-16,-2.220446e-16,4.488274e-17,0,0,0,0,-1.771619e-16,-2.669273e-16,4.488274e-17,90,5.984365e-17,1.568399e-16,0,0,0,0,0,0
3.248286,5.599935,-10.271396,1.891618e-12,0,0,1.891618e-12,0,-1.110223e-16,-1.919182e-17,0,0,0,0,3.223965e-18,-1.142463e-16,5.873512e-17,35.464123,7.831349e-17,7.726126e-17,0,0,0,0,0,0
3.295577,5.599935,-10.214827,1.891618e-12,0,0,1.891618e-12,-1.110223e-16,0,1.577322e-18,0,0,0,0,2.24049e-20,-1.110447e-16,5.553356e-17,-45.813797,7.404474e-17,7.403728e-17,0,0,0,0,0,0
3.342867,5.599935,-10.145345,1.891618e-12,0,0,1.891618e-12,4.440892e-16,-3.330669e-16,-1.681898e-17,0,0,0,0,4.44453e-16,-3.334307e-16,3.889419e-16,43.760796,5.185892e-16,4.506335e-16,0,0,0,0,0,0
1.451249,5.552645,-9.891704,1.891618e-12,0,0,1.891618e-12,2.220446e-16,2.220446e-16,-8.97661e-17,0,0,0,0,3.118107e-16,1.322785e-16,8.97661e-17,0,1.196881e-16,1.807118e-16,0,0,0,0,0,0
1.49854,5.552645,-9.958767,1.891618e-12,0,0,1.891618e-12,0,4.440892e-16,-3.950235e-17,0,0,0,0,4.475757e-16,-3.486418e-18,2.25531e-16,-39.95623,3.00708e-16,2.995526e-16,0,0,0,0,0,0
1.54583,5.552645,-10.023656,1.891618e-12,0,0,1.891618e-12,2.220446e-16,-1.110223e-16,-5.578386e-17,0,0,0,0,2.311393e-16,-1.201169e-16,1.756281e-16,35.740326,2.341708e-16,2.061468e-16,0,0,0,0,0,0
1.593121,5.552645,-10.110921,1.891618e-12,0,0,1.891618e-12,2.220446e-16,-1.110223e-16,-1.685128e-17,0,0,0,0,2.22895e-16,-1.118727e-16,1.673839e-16,42.110996,2.231785e-16,1.967893e-16,0,0,0,0,0,0
1.640411,5.552645,-10.180833,1.891618e-12,0,0,1.891618e-12,0,2.220446e-16,-1.867863e-17,0,0,0,0,2.236049e-16,-1.560302e-18,1.125826e-16,-40.224937,1.501101e-16,1.495928e-16,0,0,0,0,0,0
1.687701,5.552645,-10.239235,1.891618e-12,0,0,1.891618e-12,2.220446e-16,-1.110223e-16,-7.493293e-18,0,0,0,0,2.222131e-16,-1.111908e-16,1.667019e-16,43.711838,2.222693e-16,1.96016e-16,0,0,0,0,0,0
1.734992,5.552645,-10.290951,1.891618e-12,0,0,1.891618e-12,-2.220446e-16,0,-2.69788e-17,0,0,0,0,3.230957e-18,-2.252756e-16,1.142533e-16,-38.170834,1.523377e-16,1.512722e-16,0,0,0,0,0,0
1.782282,5.552645,-10.337828,1.891618e-12,0,0,1.891618e-12,-2.220446e-16,2.220446e-16,-3.114366e-17,0,0,0,0,2.24218e-16,-2.24218e-16,2.24218e-16,-41.007931,2.989574e-16,2.589047e-16,0,0,0,0,0,0
1.829573,5.552645,-10.38062,1.891618e-12,0,0,1.891618e-12,0,0,-2.081469e-19,0,0,0,0,2.081469e-19,-2.081469e-19,2.081469e-19,0,2.775292e-19,2.403473e-19,0,0,0,0,0,0
1.876863,5.552645,-10.418825,1.891618e-12,0,0,1.891618e-12,2.220446e-16,0,6.008875e-18,0,0,0,0,2.222071e-16,-1.624907e-19,1.111848e-16,46.549004,1.482464e-16,1.481923e-16,0,0,0,0,0,0
1.924154,5.552645,-10.451401,1.891618e-12,0,0,1.891618e-12,2.220446e-16,2.220446e-16,1.596125e-17,0,0,0,0,2.380059e-16,2.060834e-16,1.596125e-17,90,2.128166e-17,1.491727e-16,0,0,0,0,0,0
1.971444,5.552645,-10.478592,1.891618e-12,0,0,1.891618e-12,0,-1.110223e-16,7.732128e-18,0,0,0,0,5.359157e-19,-1.115582e-16,5.604707e-17,48.964844,7.472942e-17,7.455143e-17,0,0,0,0,0,0
2.018735,5.552645,-10.501749,1.891618e-12,0,0,1.891618e-12,-1.110223e-16,0,1.4643e-17,0,0,0,0,1.898826e-18,-1.129211e-16,5.740997e-17,-52.388577,7.654664e-17,7.592161e-17,0,0,0,0,0,0
2.066025,5.552645,-10.522628,1.891618e-12,0,0,1.891618e-12,0,2.220446e-16,1.113711e-17,0,0,0,0,2.226018e-16,-5.572071e-19,1.115795e-16,-47.864208,1.487727e-16,1.485873e-16,0,0,0,0,0,0
2.113316,5.552645,-10.54204,1.891618e-12,0,0,1.891618e-12,2.220446e-16,-1.110223e-16,5.465472e-18,0,0,0,0,2.221343e-16,-1.11112e-16,1.666231e-16,45.939861,2.221641e-16,1.959266e-16,0,0,0,0,0,0
2.160606,5.552645,-10.559454,1.891618e-12,0,0,1.891618e-12,0,-2.220446e-16,-4.714165e-18,0,0,0,0,1.0004e-19,-2.221446e-16,1.111223e-16,43.784302,1.481631e-16,1.481298e-16,0,0,0,0,0,0
2.207896,5.552645,-10.573674,1.891618e-12,0,0,1.891618e-12,-1.110223e-16,0,-2.958284e-17,0,0,0,0,7.390616e-18,-1.184129e-16,6.290177e-17,-30.973043,8.386902e-17,8.151724e-17,0,0,0,0,0,0
2.255187,5.552645,-10.584301,1.891618e-12,0,0,1.891618e-12,2.220446e-16,-1.110223e-16,-1.835596e-17,0,0,0,0,2.230532e-16,-1.120309e-16,1.67542e-16,41.855015,2.233894e-16,1.969687e-16,0,0,0,0,0,0
2.302477,5.552645,-10.592362,1.891618e-12,0,0,1.891618e-12,-2.220446e-16,2.220446e-16,3.013877e-17,0,0,0,0,2.240807e-16,-2.240807e-16,2.240807e-16,-48.864845,2.987742e-16,2.587461e-16,0,0,0,0,0,0
2.349768,5.552645,-10.59936,1.891618e-12,0,0,1.891618e-12,2.220446e-16,2.220446e-16,1.670459e-17,0,0,0,0,2.387492e-16,2.0534e-16,1.670459e-17,90,2.227279e-17,1.492812e-16,0,0,0,0,0,0
2.397058,5.552645,-10.605723,1.891618e-12,0,0,1.891618e-12,2.220446e-16,-1.110223e-16,-2.315485e-18,0,0,0,0,2.220607e-16,-1.110384e-16,1.665495e-16,44.601704,2.220661e-16,1.958432e-16,0,0,0,0,0,0
2.444349,5.552645,-10.610293,1.891618e-12,0,0,1.891618e-12,-2.220446e-16,0,1.327435e-17,0,0,0,0,7.907558e-19,-2.228354e-16,1.118131e-16,-48.409092,1.490841e-16,1.488212e-16,0,0,0,0,0,0
2.491639,5.552645,-10.612456,1.891618e-12,0,0,1.891618e-12,0,2.220446e-16,4.032619e-17,0,0,0,0,2.291415e-16,-7.096931e-18,1.181192e-16,-54.981171,1.574923e-16,1.551808e-16,0,0,0,0,0,0
2.53893,5.552645,-10.612126,1.891618e-12,0,0,1.891618e-12,0,0,1.073319e-17,0,0,0,0,1.073319e-17,-1.073319e-17,1.073319e-17,90,1.431093e-17,1.239363e-17,0,0,0,0,0,0
2.58622,5.552645,-10.609973,1.891618e-12,0,0,1.891618e-12,-2.220446e-16,0,2.077055e-17,0,0,0,0,1.926214e-18,-2.239708e-16,1.129485e-16,-50.298328,1.50598e-16,1.499601e-16,0,0,0,0,0,0
2.633511,5.552645,-10.606188,1.891618e-12,0,0,1.891618e-12,0,-1.110223e-16,1.224788e-17,0,0,0,0,1.335119e-18,-1.123574e-16,5.684627e-17,51.221146,7.579503e-17,7.535393e-17,0,0,0,0,0,0
2.680801,5.552645,-10.600107,1.891618e-12,0,0,1.891618e-12,-1.110223e-16,-1.110223e-16,-2.527776e-17,0,0,0,0,-8.574454e-17,-1.363001e-16,2.527776e-17,0,3.370369e-17,7.956227e-17,0,0,0,0,0,0
2.728091,5.552645,-10.590251,1.891618e-12,0,0,1.891618e-12,0,2.220446e-16,1.053427e-17,0,0,0,0,2.225432e-16,-4.986486e-19,1.11521e-16,-47.710121,1.486946e-16,1.485287e-16,0,0,0,0,0,0
2.775382,5.552645,-10.576743,1.891618e-12,0,0,1.891618e-12,-2.220446e-16,-2.220446e-16,3.031693e-17,0,0,0,0,-1.917277e-16,-2.523615e-16,3.031693e-17,90,4.042257e-17,1.521128e-16,0,0,0,0,0,0
2.822672,5.552645,-10.559721,1.891618e-12,0,0,1.891618e-12,-2.220446e-16,0,1.121993e-17,0,0,0,0,5.655034e-19,-2.226101e-16,1.115878e-16,-47.885365,1.487837e-16,1.485956e-16,0,0,0,0,0,0
2.869963,5.552645,-10.539979,1.891618e-12,0,0,1.891618e-12,-3.330669e-16,-2.220446e-16,8.374688e-19,0,0,0,0,-2.220383e-16,-3.330732e-16,5.551747e-17,-45.432163,7.402329e-17,1.958273e-16,0,0,0,0,0,0
2.917253,5.552645,-10.517739,1.891618e-12,0,0,1.891618e-12,0,-2.220446e-16,-1.421918e-17,0,0,0,0,9.068573e-19,-2.229515e-16,1.119292e-16,41.350788,1.492389e-16,1.489375e-16,0,0,0,0,0,0
2.964544,5.552645,-10.493143,1.891618e-12,0,0,1.891618e-12,2.220446e-16,-1.110223e-16,-4.884551e-17,0,0,0,0,2.290602e-16,-1.180379e-16,1.735491e-16,36.826595,2.313987e-16,2.037856e-16,0,0,0,0,0,0
3.011834,5.552645,-10.465877,1.891618e-12,0,0,1.891618e-12,0,2.220446e-16,-1.890112e-17,0,0,0,0,2.23642e-16,-1.597429e-18,1.126197e-16,-40.169125,1.501596e-16,1.4963e-16,0,0,0,0,0,0
3.059125,5.552645,-10.435784,1.891618e-12,0,0,1.891618e-12,4.440892e-16,2.220446e-16,-4.509792e-17,0,0,0,0,4.528992e-16,2.132346e-16,1.198323e-16,33.946362,1.597764e-16,2.616298e-16,0,0,0,0,0,0
3.106415,5.552645,-10.402278,1.891618e-12,0,0,1.891618e-12,-2.220446e-16,0,4.30589e-17,0,0,0,0,8.05759e-18,-2.301022e-16,1.190799e-16,-55.599144,1.587732e-16,1.561566e-16,0,0,0,0,0,0
3.153705,5.552645,-10.364851,1.891618e-12,0,0,1.891618e-12,2.220446e-16,2.220446e-16,-3.816913e-17,0,0,0,0,2.602137e-16,1.838755e-16,3.816913e-17,0,5.089217e-17,1.544517e-16,0,0,0,0,0,0
3.200996,5.552645,-10.321949,1.891618e-12,0,0,1.891618e-12,-2.220446e-16,0,3.764274e-17,0,0,0,0,6.207929e-18,-2.282525e-16,1.172302e-16,-54.364758,1.56307e-16,1.542793e-16,0,0,0,0,0,0
3.248286,5.552645,-10.27188,1.891618e-12,0,0,1.891618e-12,-2.220446e-16,2.220446e-16,4.027727e-17,0,0,0,0,2.256681e-16,-2.256681e-16,2.256681e-16,-50.140625,3.008907e-16,2.60579e-16,0,0,0,0,0,0
3.295577,5.552645,-10.214689,1.891618e-12,0,0,1.891618e-12,0,-4.440892e-16,-3.942862e-17,0,0,0,0,3.473516e-18,-4.475627e-16,2.255181e-16,39.96545,3.006908e-16,2.995397e-16,0,0,0,0,0,0
3.342867,5.552645,-10.145241,1.891618e-12,0,0,1.891618e-12,6.661338e-16,0,-6.81035e-17,0,0,0,0,6.730252e-16,-6.891401e-18,3.399583e-16,39.221901,4.532778e-16,4.509981e-16,0,0,0,0,0,0
1.451249,5.505355,-9.886792,1.891618e-12,0,0,1.891618e-12,-4.440892e-16,-1.110223e-16,5.557013e-17,0,0,0,0,-1.019954e-16,-4.531161e-16,1.755603e-16,-54.226604,2.340804e-16,2.744704e-16,0,0,0,0,0,0
1.49854,5.505355,-9.956254,1.891618e-12,0,0,1.891618e-12,-1.110223e-16,4.440892e-16,-2.636949e-17,0,0,0,0,4.45339e-16,-1.122721e-16,2.788056e-16,-42.286419,3.717408e-16,3.405427e-16,0,0,0,0,0,0
1.54583,5.505355,-10.02197,1.891618e-12,0,0,1.891618e-12,-1.110223e-16,2.220446e-16,-5.861964e-17,0,0,0,0,2.320605e-16,-1.210381e-16,1.765493e-16,-35.303986,2.353991e-16,2.071934e-16,0,0,0,0,0,0
1.593121,5.505355,-10.109169,1.891618e-12,0,0,1.891618e-12,0,2.220446e-16,-4.286884e-17,0,0,0,0,2.300336e-16,-7.988996e-18,1.190113e-16,-34.443508,1.586817e-16,1.560869e-16,0,0,0,0,0,0
1.640411,5.505355,-10.180608,1.891618e-12,0,0,1.891618e-12,-3.330669e-16,2.220446e-16,-5.507034e-17,0,0,0,0,2.274552e-16,-3.384775e-16,2.829663e-16,-39.388794,3.772884e-16,3.288304e-16,0,0,0,0,0,0
1.687701,5.505355,-10.239881,1.891618e-12,0,0,1.891618e-12,2.220446e-16,-1.110223e-16,5.233243e-18,0,0,0,0,2.221268e-16,-1.111045e-16,1.666157e-16,45.899952,2.221542e-16,1.959182e-16,0,0,0,0,0,0
1.734992,5.505355,-10.292091,1.891618e-12,0,0,1.891618e-12,-2.220446e-16,-1.110223e-16,-5.035982e-17,0,0,0,0,-9.15828e-17,-2.414841e-16,7.495065e-17,-23.892811,9.99342e-17,1.407696e-16,0,0,0,0,0,0
1.782282,5.505355,-10.339275,1.891618e-12,0,0,1.891618e-12,2.220446e-16,0,7.087122e-18,0,0,0,0,2.222706e-16,-2.259736e-19,1.112483e-16,46.826263,1.48331e-16,1.482558e-16,0,0,0,0,0,0
1.829573,5.505355,-10.382363,1.891618e-12,0,0,1.891618e-12,-2.220446e-16,2.220446e-16,2.592569e-17,0,0,0,0,2.23553e-16,-2.23553e-16,2.23553e-16,-48.329819,2.980707e-16,2.581368e-16,0,0,0,0,0,0
1.876863,5.505355,-10.421112,1.891618e-12,0,0,1.891618e-12,-4.440892e-16,0,-1.077895e-17,0,0,0,0,2.61473e-19,-4.443507e-16,2.223061e-16,-43.610405,2.964081e-16,2.96321e-16,0,0,0,0,0,0
1.924154,5.505355,-10.454395,1.891618e-12,0,0,1.891618e-12,0,2.220446e-16,-1.445468e-17,0,0,0,0,2.229816e-16,-9.37018e-19,1.119593e-16,-41.291016,1.492791e-16,1.489677e-16,0,0,0,0,0,0
1.971444,5.505355,-10.482186,1.891618e-12,0,0,1.891618e-12,-1.110223e-16,-1.110223e-16,2.741598e-17,0,0,0,0,-8.360633e-17,-1.384383e-16,2.741598e-17,90,3.655463e-17,8.050082e-17,0,0,0,0,0,0
2.018735,5.505355,-10.505644,1.891618e-12,0,0,1.891618e-12,2.220446e-16,4.440892e-16,9.064342e-18,0,0,0,0,4.444586e-16,2.216752e-16,1.113917e-16,-47.333763,1.485223e-16,2.566086e-16,0,0,0,0,0,0
2.066025,5.505355,-10.52642,1.891618e-12,0,0,1.891618e-12,0,0,1.715637e-17,0,0,0,0,1.715637e-17,-1.715637e-17,1.715637e-17,90,2.287516e-17,1.981047e-17,0,0,0,0,0,0
2.113316,5.505355,-10.545667,1.891618e-12,0,0,1.891618e-12,0,2.220446e-16,2.1669e-17,0,0,0,0,2.241395e-16,-2.094882e-18,1.131172e-16,-50.521992,1.508229e-16,1.501295e-16,0,0,0,0,0,0
2.160606,5.505355,-10.562949,1.891618e-12,0,0,1.891618e-12,2.220446e-16,0,2.61754e-18,0,0,0,0,2.220755e-16,-3.08522e-20,1.110532e-16,45.675297,1.480709e-16,1.480606e-16,0,0,0,0,0,0
2.207896,5.505355,-10.57736,1.891618e-12,0,0,1.891618e-12,2.220446e-16,0,2.638835e-17,0,0,0,0,2.251376e-16,-3.092975e-18,1.141153e-16,51.685127,1.521537e-16,1.511333e-16,0,0,0,0,0,0
2.255187,5.505355,-10.589054,1.891618e-12,0,0,1.891618e-12,0,0,-1.082028e-17,0,0,0,0,1.082028e-17,-1.082028e-17,1.082028e-17,0,1.442704e-17,1.249418e-17,0,0,0,0,0,0
2.302477,5.505355,-10.599027,1.891618e-12,0,0,1.891618e-12,-1.110223e-16,2.220446e-16,-1.711439e-17,0,0,0,0,2.229217e-16,-1.118994e-16,1.674106e-16,-42.0662,2.232141e-16,1.968196e-16,0,0,0,0,0,0
2.349768,5.505355,-10.6083,1.891618e-12,0,0,1.891618e-12,0,2.220446e-16,3.34595e-19,0,0,0,0,2.220451e-16,-5.041941e-22,1.110228e-16,-45.086338,1.480304e-16,1.480302e-16,0,0,0,0,0,0
2.397058,5.505355,-10.616382,1.891618e-12,0,0,1.891618e-12,0,2.220446e-16,-2.639141e-17,0,0,0,0,2.251383e-16,-3.093683e-18,1.14116e-16,-38.314125,1.521546e-16,1.51134e-16,0,0,0,0,0,0
2.444349,5.505355,-10.62138,1.891618e-12,0,0,1.891618e-12,-2.220446e-16,-2.220446e-16,3.793273e-17,0,0,0,0,-1.841119e-16,-2.599773e-16,3.793273e-17,90,5.057697e-17,1.54374e-16,0,0,0,0,0,0
2.491639,5.505355,-10.622563,1.891618e-12,0,0,1.891618e-12,-1.110223e-16,2.220446e-16,-5.617494e-17,0,0,0,0,2.312639e-16,-1.202416e-16,1.757527e-16,-35.679878,2.34337e-16,2.062884e-16,0,0,0,0,0,0
2.53893,5.505355,-10.620028,1.891618e-12,0,0,1.891618e-12,-1.110223e-16,0,-3.689432e-17,0,0,0,0,1.114227e-17,-1.221646e-16,6.665342e-17,-28.195419,8.887123e-17,8.539977e-17,0,0,0,0,0,0
2.58622,5.505355,-10.615202,1.891618e-12,0,0,1.891618e-12,0,2.220446e-16,2.539669e-17,0,0,0,0,2.249123e-16,-2.867747e-18,1.138901e-16,-51.442444,1.518534e-16,1.509066e-16,0,0,0,0,0,0
2.633511,5.505355,-10.609409,1.891618e-12,0,0,1.891618e-12,-1.110223e-16,4.440892e-16,-2.8236e-17,0,0,0,0,4.455218e-16,-1.124548e-16,2.789883e-16,-42.095615,3.719844e-16,3.407422e-16,0,0,0,0,0,0
2.680801,5.505355,-10.602553,1.891618e-12,0,0,1.891618e-12,0,-1.110223e-16,1.333964e-17,0,0,0,0,1.580302e-18,-1.126026e-16,5.709145e-17,51.756145,7.612194e-17,7.560068e-17,0,0,0,0,0,0
2.728091,5.505355,-10.592913,1.891618e-12,0,0,1.891618e-12,-2.220446e-16,-1.110223e-16,-4.848022e-17,0,0,0,0,-9.283257e-17,-2.402343e-16,7.370088e-17,-24.433962,9.826784e-17,1.39887e-16,0,0,0,0,0,0
2.775382,5.505355,-10.579833,1.891618e-12,0,0,1.891618e-12,0,2.220446e-16,-2.102932e-17,0,0,0,0,2.240187e-16,-1.974087e-18,1.129964e-16,-39.637184,1.506619e-16,1.500082e-16,0,0,0,0,0,0
2.822672,5.505355,-10.562891,1.891618e-12,0,0,1.891618e-12,2.220446e-16,-1.110223e-16,8.055316e-18,0,0,0,0,2.222393e-16,-1.11217e-16,1.667282e-16,46.384636,2.223042e-16,1.960457e-16,0,0,0,0,0,0
2.869963,5.505355,-10.543278,1.891618e-12,0,0,1.891618e-12,-1.110223e-16,-1.110223e-16,-2.211052e-17,0,0,0,0,-8.891178e-17,-1.331328e-16,2.211052e-17,0,2.948069e-17,7.829453e-17,0,0,0,0,0,0
2.917253,5.505355,-10.521733,1.891618e-12,0,0,1.891618e-12,-3.330669e-16,2.220446e-16,3.781708e-18,0,0,0,0,2.220704e-16,-3.330927e-16,2.775815e-16,-45.390305,3.701087e-16,3.226529e-16,0,0,0,0,0,0
2.964544,5.505355,-10.498275,1.891618e-12,0,0,1.891618e-12,0,0,-1.429337e-17,0,0,0,0,1.429337e-17,-1.429337e-17,1.429337e-17,0,1.905783e-17,1.650457e-17,0,0,0,0,0,0
3.011834,5.505355,-10.471658,1.891618e-12,0,0,1.891618e-12,-1.110223e-16,-2.220446e-16,7.471029e-18,0,0,0,0,-1.105218e-16,-2.225451e-16,5.601164e-17,48.832577,7.468219e-17,1.284874e-16,0,0,0,0,0,0
3.059125,5.505355,-10.441295,1.891618e-12,0,0,1.891618e-12,-2.220446e-16,0,-2.072084e-17,0,0,0,0,1.917082e-18,-2.239617e-16,1.129394e-16,-39.714069,1.505858e-16,1.499509e-16,0,0,0,0,0,0
3.106415,5.505355,-10.40653,1.891618e-12,0,0,1.891618e-12,2.220446e-16,-1.110223e-16,-4.050705e-17,0,0,0,0,2.269002e-16,-1.158779e-16,1.713891e-16,38.16452,2.285188e-16,2.013335e-16,0,0,0,0,0,0
3.153705,5.505355,-10.367309,1.891618e-12,0,0,1.891618e-12,-2.220446e-16,-2.220446e-16,2.043885e-17,0,0,0,0,-2.016058e-16,-2.424835e-16,2.043885e-17,90,2.72518e-17,1.498993e-16,0,0,0,0,0,0
3.200996,5.505355,-10.322732,1.891618e-12,0,0,1.891618e-12,2.220446e-16,2.220446e-16,1.219647e-17,0,0,0,0,2.342411e-16,2.098481e-16,1.219647e-17,90,1.626196e-17,1.486982e-16,0,0,0,0,0,0
3.248286,5.505355,-10.271331,1.891618e-12,0,0,1.891618e-12,2.220446e-16,0,-1.361854e-17,0,0,0,0,2.228767e-16,-8.3214e-19,1.118544e-16,41.503376,1.491393e-16,1.488627e-16,0,0,0,0,0,0
3.295577,5.505355,-10.212982,1.891618e-12,0,0,1.891618e-12,0,2.220446e-16,-5.190212e-18,0,0,0,0,2.221659e-16,-1.212531e-19,1.111436e-16,-43.661705,1.481914e-16,1.48151e-16,0,0,0,0,0,0
3.342867,5.505355,-10.143119,1.891618e-12,0,0,1.891618e-12,0,0,2.480077e-17,0,0,0,0,2.480077e-17,-2.480077e-17,2.480077e-17,90,3.306769e-17,2.863746e-17,0,0,0,0,0,0
1.451249,5.458064,-9.884977,1.891618e-12,0,0,1.891618e-12,-2.220446e-16,0,-8.202713e-18,0,0,0,0,3.0261e-19,-2.223472e-16,1.113249e-16,-42.887234,1.484332e-16,1.483324e-16,0,0,0,0,0,0
1.49854,5.458064,-9.955619,1.891618e-12,0,0,1.891618e-12,2.220446e-16,2.220446e-16,3.486363e-17,0,0,0,0,2.569082e-16,1.87181e-16,3.486363e-17,90,4.648485e-17,1.534061e-16,0,0,0,0,0,0
1.54583,5.458064,-10.022384,1.891618e-12,0,0,1.891618e-12,-1.110223e-16,2.220446e-16,-3.72722e-17,0,0,0,0,2.261646e-16,-1.151423e-16,1.706535e-16,-38.692207,2.27538e-16,2.004986e-16,0,0,0,0,0,0
1.593121,5.458064,-10.110368,1.891618e-12,0,0,1.891618e-12,4.440892e-16,2.220446e-16,-2.552035e-18,0,0,0,0,4.441185e-16,2.220153e-16,1.110516e-16,44.341595,1.480688e-16,2.56412e-16,0,0,0,0,0,0
1.640411,5.458064,-10.182283,1.891618e-12,0,0,1.891618e-12,-1.110223e-16,-1.110223e-16,-5.638849e-17,0,0,0,0,-5.463382e-17,-1.674108e-16,5.638849e-17,0,7.518464e-17,9.857864e-17,0,0,0,0,0,0
1.687701,5.458064,-10.241902,1.891618e-12,0,0,1.891618e-12,-2.220446e-16,0,-2.750382e-17,0,0,0,0,3.356069e-18,-2.254007e-16,1.143784e-16,-38.043053,1.525045e-16,1.513982e-16,0,0,0,0,0,0
1.734992,5.458064,-10.294238,1.891618e-12,0,0,1.891618e-12,0,-1.110223e-16,2.67225e-17,0,0,0,0,6.097126e-18,-1.171194e-16,6.160828e-17,57.852844,8.214437e-17,8.01893e-17,0,0,0,0,0,0
1.782282,5.458064,-10.341436,1.891618e-12,0,0,1.891618e-12,0,0,-2.132064e-17,0,0,0,0,2.132064e-17,-2.132064e-17,2.132064e-17,0,2.842752e-17,2.461895e-17,0,0,0,0,0,0
1.829573,5.458064,-10.384608,1.891618e-12,0,0,1.891618e-12,-2.220446e-16,-1.110223e-16,-4.940367e-17,0,0,0,0,-9.222188e-17,-2.40845e-16,7.431158e-17,-24.165819,9.908211e-17,1.403171e-16,0,0,0,0,0,0
1.876863,5.458064,-10.423549,1.891618e-12,0,0,1.891618e-12,-2.220446e-16,0,-2.574161e-17,0,0,0,0,2.945158e-18,-2.249898e-16,1.139675e-16,-38.473038,1.519566e-16,1.509845e-16,0,0,0,0,0,0
1.924154,5.458064,-10.457274,1.891618e-12,0,0,1.891618e-12,0,2.220446e-16,-2.836335e-17,0,0,0,0,2.256104e-16,-3.565792e-18,1.145881e-16,-37.834465,1.527841e-16,1.516095e-16,0,0,0,0,0,0
1.971444,5.458064,-10.48552,1.891618e-12,0,0,1.891618e-12,2.220446e-16,0,1.879644e-17,0,0,0,0,2.236245e-16,-1.579908e-18,1.126022e-16,49.804623,1.501363e-16,1.496124e-16,0,0,0,0,0,0
2.018735,5.458064,-10.509219,1.891618e-12,0,0,1.891618e-12,4.440892e-16,0,1.800411e-17,0,0,0,0,4.448179e-16,-7.287206e-19,2.227733e-16,47.317795,2.970311e-16,2.967885e-16,0,0,0,0,0,0
2.066025,5.458064,-10.530081,1.891618e-12,0,0,1.891618e-12,-2.220446e-16,0,-3.958174e-17,0,0,0,0,6.84485e-18,-2.288895e-16,1.178671e-16,-35.1889,1.571562e-16,1.54925e-16,0,0,0,0,0,0
2.113316,5.458064,-10.549425,1.891618e-12,0,0,1.891618e-12,-1.110223e-16,2.220446e-16,1.360453e-17,0,0,0,0,2.225994e-16,-1.115771e-16,1.670882e-16,-47.335133,2.227843e-16,1.96454e-16,0,0,0,0,0,0
2.160606,5.458064,-10.567024,1.891618e-12,0,0,1.891618e-12,2.220446e-16,0,1.04747e-17,0,0,0,0,2.225376e-16,-4.930374e-19,1.115153e-16,47.694885,1.486871e-16,1.48523e-16,0,0,0,0,0,0
2.207896,5.458064,-10.582208,1.891618e-12,0,0,1.891618e-12,0,0,-1.45906e-17,0,0,0,0,1.45906e-17,-1.45906e-17,1.45906e-17,0,1.945413e-17,1.684777e-17,0,0,0,0,0,0
2.255187,5.458064,-10.595233,1.891618e-12,0,0,1.891618e-12,0,2.220446e-16,2.595726e-17,0,0,0,0,2.250387e-16,-2.994061e-18,1.140164e-16,-51.57975,1.520218e-16,1.510337e-16,0,0,0,0,0,0
2.302477,5.458064,-10.606914,1.891618e-12,0,0,1.891618e-12,0,2.220446e-16,1.49529e-17,0,0,0,0,2.23047e-16,-1.00243e-18,1.120247e-16,-48.835323,1.493663e-16,1.490333e-16,0,0,0,0,0,0
2.349768,5.458064,-10.617783,1.891618e-12,0,0,1.891618e-12,0,-1.110223e-16,5.675933e-18,0,0,0,0,2.894234e-19,-1.113117e-16,5.580057e-17,47.91906,7.440077e-17,7.430448e-17,0,0,0,0,0,0
2.397058,5.458064,-10.626697,1.891618e-12,0,0,1.891618e-12,-1.110223e-16,-1.110223e-16,-2.577853e-17,0,0,0,0,-8.524377e-17,-1.368008e-16,2.577853e-17,0,3.437138e-17,7.977622e-17,0,0,0,0,0,0
2.444349,5.458064,-10.631362,1.891618e-12,0,0,1.891618e-12,2.220446e-16,2.220446e-16,-9.001799e-18,0,0,0,0,2.310464e-16,2.130428e-16,9.001799e-18,0,1.20024e-17,1.483942e-16,0,0,0,0,0,0
2.491639,5.458064,-10.630773,1.891618e-12,0,0,1.891618e-12,0,-1.110223e-16,-5.543204e-18,0,0,0,0,2.760787e-19,-1.112984e-16,5.578723e-17,42.148746,7.438297e-17,7.429112e-17,0,0,0,0,0,0
2.53893,5.458064,-10.62548,1.891618e-12,0,0,1.891618e-12,4.440892e-16,0,-4.234319e-17,0,0,0,0,4.480905e-16,-4.001303e-18,2.260459e-16,39.601753,3.013945e-16,3.000697e-16,0,0,0,0,0,0
2.58622,5.458064,-10.617695,1.891618e-12,0,0,1.891618e-12,0,-1.110223e-16,-2.40062e-18,0,0,0,0,5.188402e-20,-1.110742e-16,5.556303e-17,43.761871,7.408405e-17,7.406676e-17,0,0,0,0,0,0
2.633511,5.458064,-10.609929,1.891618e-12,0,0,1.891618e-12,2.220446e-16,0,-3.362332e-17,0,0,0,0,2.270244e-16,-4.979764e-18,1.160021e-16,36.575481,1.546694e-16,1.530365e-16,0,0,0,0,0,0
2.680801,5.458064,-10.602535,1.891618e-12,0,0,1.891618e-12,0,-1.110223e-16,-6.344966e-18,0,0,0,0,3.614405e-19,-1.113837e-16,5.587259e-17,41.739674,7.449679e-17,7.43766e-17,0,0,0,0,0,0
2.728091,5.458064,-10.593339,1.891618e-12,0,0,1.891618e-12,0,-1.110223e-16,3.065604e-18,0,0,0,0,8.458456e-20,-1.111069e-16,5.559574e-17,46.580475,7.412765e-17,7.409947e-17,0,0,0,0,0,0
2.775382,5.458064,-10.580968,1.891618e-12,0,0,1.891618e-12,-1.110223e-16,2.220446e-16,-9.715366e-18,0,0,0,0,2.223278e-16,-1.113054e-16,1.668166e-16,-43.330608,2.224221e-16,1.96146e-16,0,0,0,0,0,0
2.822672,5.458064,-10.564856,1.891618e-12,0,0,1.891618e-12,2.220446e-16,0,-3.364006e-18,0,0,0,0,2.220956e-16,-5.095345e-20,1.110733e-16,44.132225,1.480977e-16,1.480807e-16,0,0,0,0,0,0
2.869963,5.458064,-10.546064,1.891618e-12,0,0,1.891618e-12,-1.110223e-16,0,1.850971e-17,0,0,0,0,3.004635e-18,-1.140269e-16,5.851579e-17,-54.220257,7.802105e-17,7.703904e-17,0,0,0,0,0,0
2.917253,5.458064,-10.52554,1.891618e-12,0,0,1.891618e-12,-1.110223e-16,2.220446e-16,-2.987004e-17,0,0,0,0,2.247022e-16,-1.136799e-16,1.69191e-16,-39.915676,2.255881e-16,1.988392e-16,0,0,0,0,0,0
2.964544,5.458064,-10.503153,1.891618e-12,0,0,1.891618e-12,0,-1.110223e-16,2.669806e-17,0,0,0,0,6.086532e-18,-1.171088e-16,6.159769e-17,57.842606,8.213025e-17,8.017844e-17,0,0,0,0,0,0
3.011834,5.458064,-10.477225,1.891618e-12,0,0,1.891618e-12,2.220446e-16,2.220446e-16,2.732848e-17,0,0,0,0,2.493731e-16,1.947161e-16,2.732848e-17,90,3.643798e-17,1.513559e-16,0,0,0,0,0,0
3.059125,5.458064,-10.446757,1.891618e-12,0,0,1.891618e-12,-2.220446e-16,-2.220446e-16,1.451324e-18,0,0,0,0,-2.205933e-16,-2.234959e-16,1.451324e-18,90,1.935099e-18,1.480392e-16,0,0,0,0,0,0
3.106415,5.458064,-10.411072,1.891618e-12,0,0,1.891618e-12,-2.220446e-16,0,3.811671e-17,0,0,0,0,6.360981e-18,-2.284056e-16,1.173833e-16,-54.474308,1.56511e-16,1.544344e-16,0,0,0,0,0,0
3.153705,5.458064,-10.370409,1.891618e-12,0,0,1.891618e-12,0,-2.220446e-16,-5.490842e-17,0,0,0,0,1.283603e-17,-2.348806e-16,1.238583e-16,31.842165,1.651444e-16,1.610364e-16,0,0,0,0,0,0
3.200996,5.458064,-10.324132,1.891618e-12,0,0,1.891618e-12,-2.220446e-16,0,-1.385773e-17,0,0,0,0,8.615139e-19,-2.229061e-16,1.118838e-16,-41.442589,1.491784e-16,1.488921e-16,0,0,0,0,0,0
3.248286,5.458064,-10.271306,1.891618e-12,0,0,1.891618e-12,0,-1.110223e-16,-1.961458e-17,0,0,0,0,3.363458e-18,-1.143858e-16,5.887461e-17,35.269699,7.849948e-17,7.740269e-17,0,0,0,0,0,0
3.295577,5.458064,-10.211567,1.891618e-12,0,0,1.891618e-12,2.220446e-16,-2.220446e-16,2.264194e-17,0,0,0,0,2.23196e-16,-2.23196e-16,2.23196e-16,47.911171,2.975947e-16,2.577246e-16,0,0,0,0,0,0
3.342867,5.458064,-10.140862,1.891618e-12,0,0,1.891618e-12,0,0,5.953334e-17,0,0,0,0,5.953334e-17,-5.953334e-17,5.953334e-17,90,7.937779e-17,6.874318e-17,0,0,0,0,0,0
1.451249,5.410774,-9.886876,1.891618e-12,0,0,1.891618e-12,4.440892e-16,0,-5.628655e-17,0,0,0,0,4.511122e-16,-7.023031e-18,2.290676e-16,37.887798,3.054235e-16,3.031096e-16,0,0,0,0,0,0
1.49854,5.410774,-9.957683,1.891618e-12,0,0,1.891618e-12,2.220446e-16,2.220446e-16,7.832491e-17,0,0,0,0,3.003695e-16,1.437197e-16,7.832491e-17,90,1.044332e-16,1.73472e-16,0,0,0,0,0,0
1.54583,5.410774,-10.025846,1.891618e-12,0,0,1.891618e-12,-1.110223e-16,-1.110223e-16,-1.549468e-17,0,0,0,0,-9.552762e-17,-1.26517e-16,1.549468e-17,0,2.065958e-17,7.614666e-17,0,0,0,0,0,0
1.593121,5.410774,-10.115477,1.891618e-12,0,0,1.891618e-12,0,0,3.257973e-17,0,0,0,0,3.257973e-17,-3.257973e-17,3.257973e-17,90,4.343964e-17,3.761983e-17,0,0,0,0,0,0
1.640411,5.410774,-10.186102,1.891618e-12,0,0,1.891618e-12,2.220446e-16,0,-1.197225e-17,0,0,0,0,2.226883e-16,-6.436565e-19,1.11666e-16,41.922607,1.488879e-16,1.486739e-16,0,0,0,0,0,0
1.687701,5.410774,-10.245437,1.891618e-12,0,0,1.891618e-12,-2.220446e-16,0,8.925076e-18,0,0,0,0,3.581654e-19,-2.224028e-16,1.113805e-16,-47.298061,1.485073e-16,1.48388e-16,0,0,0,0,0,0
1.734992,5.410774,-10.297579,1.891618e-12,0,0,1.891618e-12,4.440892e-16,0,2.518298e-17,0,0,0,0,4.455127e-16,-1.423489e-18,2.234681e-16,48.235249,2.979575e-16,2.974841e-16,0,0,0,0,0,0
1.782282,5.410774,-10.34469,1.891618e-12,0,0,1.891618e-12,2.220446e-16,2.220446e-16,2.326803e-17,0,0,0,0,2.453126e-16,1.987766e-16,2.326803e-17,90,3.102404e-17,1.504482e-16,0,0,0,0,0,0
1.829573,5.410774,-10.387703,1.891618e-12,0,0,1.891618e-12,0,-1.110223e-16,2.130601e-17,0,0,0,0,3.948366e-18,-1.149707e-16,5.945952e-17,55.498775,7.927936e-17,7.799655e-17,0,0,0,0,0,0
1.876863,5.410774,-10.426187,1.891618e-12,0,0,1.891618e-12,0,-1.110223e-16,-2.182996e-17,0,0,0,0,4.138118e-18,-1.151604e-16,5.964927e-17,34.266293,7.953236e-17,7.81895e-17,0,0,0,0,0,0
1.924154,5.410774,-10.459522,1.891618e-12,0,0,1.891618e-12,0,0,2.925565e-18,0,0,0,0,2.925565e-18,-2.925565e-18,2.925565e-18,90,3.900753e-18,3.378151e-18,0,0,0,0,0,0
1.971444,5.410774,-10.487656,1.891618e-12,0,0,1.891618e-12,-1.110223e-16,-1.110223e-16,-2.717545e-17,0,0,0,0,-8.384685e-17,-1.381978e-16,2.717545e-17,0,3.623394e-17,8.0392e-17,0,0,0,0,0,0
2.018735,5.410774,-10.511408,1.891618e-12,0,0,1.891618e-12,2.220446e-16,2.220446e-16,5.463231e-17,0,0,0,0,2.766769e-16,1.674123e-16,5.463231e-17,90,7.284309e-17,1.609111e-16,0,0,0,0,0,0
2.066025,5.410774,-10.532409,1.891618e-12,0,0,1.891618e-12,-1.110223e-16,2.220446e-16,-2.586107e-17,0,0,0,0,2.240406e-16,-1.130183e-16,1.685295e-16,-40.586506,2.24706e-16,1.980887e-16,0,0,0,0,0,0
2.113316,5.410774,-10.551879,1.891618e-12,0,0,1.891618e-12,2.220446e-16,-2.220446e-16,4.847013e-17,0,0,0,0,2.272733e-16,-2.272733e-16,2.272733e-16,51.156967,3.030311e-16,2.624326e-16,0,0,0,0,0,0
2.160606,5.410774,-10.56967,1.891618e-12,0,0,1.891618e-12,0,0,4.840231e-18,0,0,0,0,4.840231e-18,-4.840231e-18,4.840231e-18,90,6.453641e-18,5.589017e-18,0,0,0,0,0,0
2.207896,5.410774,-10.585237,1.891618e-12,0,0,1.891618e-12,-2.220446e-16,2.220446e-16,4.503555e-18,0,0,0,0,2.220903e-16,-2.220903e-16,2.220903e-16,-45.580963,2.961204e-16,2.564477e-16,0,0,0,0,0,0
2.255187,5.410774,-10.598913,1.891618e-12,0,0,1.891618e-12,-1.110223e-16,0,-1.507136e-17,0,0,0,0,2.009575e-18,-1.130319e-16,5.752072e-17,-37.405132,7.66943e-17,7.60333e-17,0,0,0,0,0,0
2.302477,5.410774,-10.611497,1.891618e-12,0,0,1.891618e-12,0,0,-5.917489e-18,0,0,0,0,5.917489e-18,-5.917489e-18,5.917489e-18,0,7.889985e-18,6.832928e-18,0,0,0,0,0,0
2.349768,5.410774,-10.62335,1.891618e-12,0,0,1.891618e-12,-1.110223e-16,-1.110223e-16,1.040071e-17,0,0,0,0,-1.006216e-16,-1.21423e-16,1.040071e-17,90,1.386761e-17,7.498289e-17,0,0,0,0,0,0
2.397058,5.410774,-10.63282,1.891618e-12,0,0,1.891618e-12,-1.110223e-16,-2.220446e-16,2.886463e-17,0,0,0,0,-1.039663e-16,-2.291007e-16,6.25672e-17,58.73674,8.342294e-17,1.324594e-16,0,0,0,0,0,0
2.444349,5.410774,-10.637101,1.891618e-12,0,0,1.891618e-12,-2.220446e-16,0,1.051445e-17,0,0,0,0,4.967782e-19,-2.225414e-16,1.115191e-16,-47.705051,1.486921e-16,1.485268e-16,0,0,0,0,0,0
2.491639,5.410774,-10.634925,1.891618e-12,0,0,1.891618e-12,2.220446e-16,-2.220446e-16,2.738061e-17,0,0,0,0,2.237264e-16,-2.237264e-16,2.237264e-16,48.514866,2.983019e-16,2.58337e-16,0,0,0,0,0,0
2.53893,5.410774,-10.627258,1.891618e-12,0,0,1.891618e-12,2.220446e-16,-6.661338e-16,-2.502195e-18,0,0,0,0,2.220516e-16,-6.661409e-16,4.440963e-16,44.838589,5.921283e-16,5.337366e-16,0,0,0,0,0,0
2.58622,5.410774,-10.617058,1.891618e-12,0,0,1.891618e-12,0,-2.220446e-16,4.89602e-18,0,0,0,0,1.079034e-19,-2.221525e-16,1.111302e-16,46.262539,1.481736e-16,1.481377e-16,0,0,0,0,0,0
2.633511,5.410774,-10.6077,1.891618e-12,0,0,1.891618e-12,2.220446e-16,-1.110223e-16,7.699105e-18,0,0,0,0,2.222225e-16,-1.112002e-16,1.667113e-16,46.323494,2.222818e-16,1.960266e-16,0,0,0,0,0,0
2.680801,5.410774,-10.599757,1.891618e-12,0,0,1.891618e-12,-1.110223e-16,2.220446e-16,1.322582e-17,0,0,0,0,2.22569e-16,-1.115467e-16,1.670578e-16,-47.270405,2.227438e-16,1.964195e-16,0,0,0,0,0,0
2.728091,5.410774,-10.590992,1.891618e-12,0,0,1.891618e-12,0,-1.110223e-16,-6.635202e-18,0,0,0,0,3.951437e-19,-1.114174e-16,5.590629e-17,41.591911,7.454173e-17,7.441036e-17,0,0,0,0,0,0
2.775382,5.410774,-10.579561,1.891618e-12,0,0,1.891618e-12,-3.330669e-16,-1.110223e-16,-1.066114e-17,0,0,0,0,-1.105116e-16,-3.335776e-16,1.11533e-16,-42.257439,1.487107e-16,1.962115e-16,0,0,0,0,0,0
2.822672,5.410774,-10.564642,1.891618e-12,0,0,1.891618e-12,2.220446e-16,0,2.238499e-17,0,0,0,0,2.242788e-16,-2.234217e-18,1.132565e-16,50.699741,1.510087e-16,1.502695e-16,0,0,0,0,0,0
2.869963,5.410774,-10.547159,1.891618e-12,0,0,1.891618e-12,2.220446e-16,-1.110223e-16,2.778619e-17,0,0,0,0,2.243468e-16,-1.133245e-16,1.688356e-16,49.736286,2.251141e-16,1.98436e-16,0,0,0,0,0,0
2.917253,5.410774,-10.527857,1.891618e-12,0,0,1.891618e-12,0,-1.110223e-16,3.53266e-17,0,0,0,0,1.028746e-17,-1.213098e-16,6.57986e-17,61.23608,8.773148e-17,8.45113e-17,0,0,0,0,0,0
2.964544,5.410774,-10.50644,1.891618e-12,0,0,1.891618e-12,0,0,-4.849153e-17,0,0,0,0,4.849153e-17,-4.849153e-17,4.849153e-17,0,6.465537e-17,5.59932e-17,0,0,0,0,0,0
3.011834,5.410774,-10.481229,1.891618e-12,0,0,1.891618e-12,4.440892e-16,-1.110223e-16,-4.72119e-18,0,0,0,0,4.441293e-16,-1.110625e-16,2.775959e-16,44.512749,3.701279e-16,3.392225e-16,0,0,0,0,0,0
3.059125,5.410774,-10.450992,1.891618e-12,0,0,1.891618e-12,0,0,5.706495e-17,0,0,0,0,5.706495e-17,-5.706495e-17,5.706495e-17,90,7.608661e-17,6.589294e-17,0,0,0,0,0,0
3.106415,5.410774,-10.415289,1.891618e-12,0,0,1.891618e-12,-2.220446e-16,0,-2.661908e-17,0,0,0,0,3.146552e-18,-2.251911e-16,1.141689e-16,-38.258541,1.522251e-16,1.511872e-16,0,0,0,0,0,0
3.153705,5.410774,-10.374167,1.891618e-12,0,0,1.891618e-12,0,-1.110223e-16,-3.018913e-17,0,0,0,0,7.678019e-18,-1.187003e-16,6.318917e-17,30.730465,8.425223e-17,8.181307e-17,0,0,0,0,0,0
3.200996,5.410774,-10.326805,1.891618e-12,0,0,1.891618e-12,0,-1.110223e-16,5.46316e-18,0,0,0,0,2.681821e-19,-1.112905e-16,5.577934e-17,47.810349,7.437244e-17,7.428321e-17,0,0,0,0,0,0
3.248286,5.410774,-10.272798,1.891618e-12,0,0,1.891618e-12,-3.330669e-16,2.220446e-16,1.652367e-18,0,0,0,0,2.220495e-16,-3.330718e-16,2.775607e-16,-45.170547,3.700809e-16,3.22629e-16,0,0,0,0,0,0
3.295577,5.410774,-10.211803,1.891618e-12,0,0,1.891618e-12,2.220446e-16,0,1.224548e-18,0,0,0,0,2.220514e-16,-6.753023e-21,1.110291e-16,45.315968,1.480387e-16,1.480365e-16,0,0,0,0,0,0
3.342867,5.410774,-10.140228,1.891618e-12,0,0,1.891618e-12,-2.220446e-16,2.220446e-16,1.521433e-17,0,0,0,0,2.225652e-16,-2.225652e-16,2.225652e-16,-46.959869,2.967537e-16,2.569962e-16,0,0,0,0,0,0
1.451249,5.363483,-9.890632,1.891618e-12,0,0,1.891618e-12,0,2.220446e-16,7.125379e-17,0,0,0,0,2.429429e-16,-2.089834e-17,1.319206e-16,-61.346115,1.758942e-16,1.693584e-16,0,0,0,0,0,0
1.49854,5.363483,-9.960474,1.891618e-12,0,0,1.891618e-12,0,-1.110223e-16,2.217013e-17,0,0,0,0,4.263448e-18,-1.152858e-16,5.97746e-17,55.885429,7.969947e-17,7.831701e-17,0,0,0,0,0,0
1.54583,5.363483,-10.02968,1.891618e-12,0,0,1.891618e-12,-1.110223e-16,2.220446e-16,-6.20038e-17,0,0,0,0,2.332128e-16,-1.221905e-16,1.777016e-16,-34.789337,2.369355e-16,2.085027e-16,0,0,0,0,0,0
1.593121,5.363483,-10.121064,1.891618e-12,0,0,1.891618e-12,2.220446e-16,0,-2.642746e-17,0,0,0,0,2.251466e-16,-3.102026e-18,1.141243e-16,38.305321,1.521658e-16,1.511424e-16,0,0,0,0,0,0
1.640411,5.363483,-10.19084,1.891618e-12,0,0,1.891618e-12,0,2.220446e-16,-2.556415e-18,0,0,0,0,2.22074e-16,-2.942828e-20,1.110517e-16,-44.340466,1.48069e-16,1.480592e-16,0,0,0,0,0,0
1.687701,5.363483,-10.249582,1.891618e-12,0,0,1.891618e-12,-3.330669e-16,-1.110223e-16,-1.221272e-17,0,0,0,0,-1.103526e-16,-3.337366e-16,1.11692e-16,-41.861282,1.489227e-16,1.96332e-16,0,0,0,0,0,0
1.734992,5.363483,-10.301449,1.891618e-12,0,0,1.891618e-12,-2.220446e-16,-1.110223e-16,-1.695486e-17,0,0,0,0,-1.084908e-16,-2.245761e-16,5.80427e-17,-36.507835,7.739027e-17,1.296838e-16,0,0,0,0,0,0
1.782282,5.363483,-10.348435,1.891618e-12,0,0,1.891618e-12,0,-2.220446e-16,2.141935e-18,0,0,0,0,2.066007e-20,-2.220653e-16,1.11043e-16,45.552631,1.480573e-16,1.480504e-16,0,0,0,0,0,0
1.829573,5.363483,-10.391087,1.891618e-12,0,0,1.891618e-12,-4.440892e-16,2.220446e-16,4.592875e-18,0,0,0,0,2.220763e-16,-4.441209e-16,3.330986e-16,-45.39502,4.441315e-16,3.916858e-16,0,0,0,0,0,0
1.876863,5.363483,-10.42884,1.891618e-12,0,0,1.891618e-12,2.220446e-16,0,-1.506898e-17,0,0,0,0,2.230626e-16,-1.017984e-18,1.120403e-16,41.135262,1.49387e-16,1.490489e-16,0,0,0,0,0,0
1.924154,5.363483,-10.461428,1.891618e-12,0,0,1.891618e-12,-1.110223e-16,-2.220446e-16,-3.768671e-18,0,0,0,0,-1.108945e-16,-2.221724e-16,5.563893e-17,43.058064,7.418524e-17,1.282713e-16,0,0,0,0,0,0
1.971444,5.363483,-10.489025,1.891618e-12,0,0,1.891618e-12,2.220446e-16,0,1.678069e-17,0,0,0,0,2.233056e-16,-1.261014e-18,1.122833e-16,49.297512,1.497111e-16,1.492925e-16,0,0,0,0,0,0
2.018735,5.363483,-10.512691,1.891618e-12,0,0,1.891618e-12,0,0,-2.027636e-17,0,0,0,0,2.027636e-17,-2.027636e-17,2.027636e-17,0,2.703514e-17,2.341312e-17,0,0,0,0,0,0
2.066025,5.363483,-10.533852,1.891618e-12,0,0,1.891618e-12,0,-2.220446e-16,-5.385227e-17,0,0,0,0,1.237145e-17,-2.344161e-16,1.233938e-16,32.061958,1.64525e-16,1.605601e-16,0,0,0,0,0,0
2.113316,5.363483,-10.553199,1.891618e-12,0,0,1.891618e-12,2.220446e-16,-1.110223e-16,1.894917e-17,0,0,0,0,2.231192e-16,-1.120969e-16,1.676081e-16,48.245766,2.234774e-16,1.970436e-16,0,0,0,0,0,0
2.160606,5.363483,-10.570708,1.891618e-12,0,0,1.891618e-12,2.220446e-16,-1.110223e-16,8.9236e-18,0,0,0,0,2.222835e-16,-1.112612e-16,1.667724e-16,46.533615,2.223631e-16,1.960958e-16,0,0,0,0,0,0
2.207896,5.363483,-10.585728,1.891618e-12,0,0,1.891618e-12,2.220446e-16,-1.110223e-16,2.336465e-17,0,0,0,0,2.236756e-16,-1.126533e-16,1.681645e-16,48.993237,2.242193e-16,1.976747e-16,0,0,0,0,0,0
2.255187,5.363483,-10.599006,1.891618e-12,0,0,1.891618e-12,0,2.220446e-16,-4.382692e-17,0,0,0,0,2.303821e-16,-8.337451e-18,1.193598e-16,-34.228992,1.591463e-16,1.564413e-16,0,0,0,0,0,0
2.302477,5.363483,-10.611856,1.891618e-12,0,0,1.891618e-12,-1.110223e-16,0,1.262848e-18,0,0,0,0,1.43627e-20,-1.110367e-16,5.552551e-17,-45.651611,7.403402e-17,7.402923e-17,0,0,0,0,0,0
2.349768,5.363483,-10.624205,1.891618e-12,0,0,1.891618e-12,2.220446e-16,4.440892e-16,-4.949577e-18,0,0,0,0,4.441995e-16,2.219343e-16,1.111326e-16,-43.723671,1.481768e-16,2.564587e-16,0,0,0,0,0,0
2.397058,5.363483,-10.634154,1.891618e-12,0,0,1.891618e-12,-2.220446e-16,2.220446e-16,-2.045823e-17,0,0,0,0,2.229851e-16,-2.229851e-16,2.229851e-16,-42.367939,2.973134e-16,2.57481e-16,0,0,0,0,0,0
2.444349,5.363483,-10.638846,1.891618e-12,0,0,1.891618e-12,0,2.220446e-16,-2.020168e-17,0,0,0,0,2.238676e-16,-1.822989e-18,1.128453e-16,-39.843628,1.504604e-16,1.498564e-16,0,0,0,0,0,0
2.491639,5.363483,-10.636487,1.891618e-12,0,0,1.891618e-12,2.220446e-16,-1.110223e-16,2.517343e-18,0,0,0,0,2.220636e-16,-1.110413e-16,1.665525e-16,45.433014,2.2207e-16,1.958465e-16,0,0,0,0,0,0
2.53893,5.363483,-10.628081,1.891618e-12,0,0,1.891618e-12,2.220446e-16,2.220446e-16,-6.252986e-18,0,0,0,0,2.282976e-16,2.157916e-16,6.252986e-18,0,8.337315e-18,1.482057e-16,0,0,0,0,0,0
2.58622,5.363483,-10.616658,1.891618e-12,0,0,1.891618e-12,0,0,-5.877858e-18,0,0,0,0,5.877858e-18,-5.877858e-18,5.877858e-18,0,7.837143e-18,6.787165e-18,0,0,0,0,0,0
2.633511,5.363483,-10.60586,1.891618e-12,0,0,1.891618e-12,2.220446e-16,-1.110223e-16,-4.711686e-17,0,0,0,0,2.285816e-16,-1.175593e-16,1.730705e-16,37.101173,2.307606e-16,2.032422e-16,0,0,0,0,0,0
2.680801,5.363483,-10.596999,1.891618e-12,0,0,1.891618e-12,-1.110223e-16,-2.220446e-16,1.327034e-17,0,0,0,0,-1.094582e-16,-2.236088e-16,5.70753e-17,51.722324,7.61004e-17,1.291101e-16,0,0,0,0,0,0
2.728091,5.363483,-10.588267,1.891618e-12,0,0,1.891618e-12,4.440892e-16,2.220446e-16,-5.520529e-17,0,0,0,0,4.570571e-16,2.090767e-16,1.239902e-16,31.780682,1.653203e-16,2.642005e-16,0,0,0,0,0,0
2.775382,5.363483,-10.57761,1.891618e-12,0,0,1.891618e-12,0,2.220446e-16,4.650641e-18,0,0,0,0,2.22142e-16,-9.736326e-20,1.111197e-16,-46.199337,1.481595e-16,1.481271e-16,0,0,0,0,0,0
2.822672,5.363483,-10.563762,1.891618e-12,0,0,1.891618e-12,-1.110223e-16,-1.110223e-16,4.511312e-19,0,0,0,0,-1.105712e-16,-1.114734e-16,4.511312e-19,90,6.015083e-19,7.40167e-17,0,0,0,0,0,0
2.869963,5.363483,-10.547398,1.891618e-12,0,0,1.891618e-12,0,2.220446e-16,3.688694e-17,0,0,0,0,2.28012e-16,-5.967431e-18,1.169897e-16,-54.189484,1.559863e-16,1.540357e-16,0,0,0,0,0,0
2.917253,5.363483,-10.528926,1.891618e-12,0,0,1.891618e-12,-2.220446e-16,0,-3.579723e-18,0,0,0,0,5.769603e-20,-2.221023e-16,1.1108e-16,-44.076618,1.481067e-16,1.480874e-16,0,0,0,0,0,0
2.964544,5.363483,-10.508132,1.891618e-12,0,0,1.891618e-12,2.220446e-16,0,-1.958302e-17,0,0,0,0,2.237585e-16,-1.713878e-18,1.127362e-16,39.998299,1.503149e-16,1.497469e-16,0,0,0,0,0,0
3.011834,5.363483,-10.483379,1.891618e-12,0,0,1.891618e-12,-1.110223e-16,-1.110223e-16,1.662658e-17,0,0,0,0,-9.439572e-17,-1.276489e-16,1.662658e-17,90,2.216877e-17,7.646432e-17,0,0,0,0,0,0
3.059125,5.363483,-10.453466,1.891618e-12,0,0,1.891618e-12,-2.220446e-16,0,3.451946e-17,0,0,0,0,5.242674e-18,-2.272873e-16,1.16265e-16,-53.635853,1.5502e-16,1.533023e-16,0,0,0,0,0,0
3.106415,5.363483,-10.418235,1.891618e-12,0,0,1.891618e-12,-2.220446e-16,0,-7.081302e-18,0,0,0,0,2.256031e-19,-2.222702e-16,1.112479e-16,-43.175232,1.483305e-16,1.482554e-16,0,0,0,0,0,0
3.153705,5.363483,-10.377302,1.891618e-12,0,0,1.891618e-12,2.220446e-16,0,4.193156e-17,0,0,0,0,2.296992e-16,-7.6546e-18,1.186769e-16,55.345421,1.582359e-16,1.55747e-16,0,0,0,0,0,0
3.200996,5.363483,-10.32955,1.891618e-12,0,0,1.891618e-12,0,-4.440892e-16,-1.295795e-17,0,0,0,0,3.777749e-19,-4.44467e-16,2.224224e-16,43.330078,2.965632e-16,2.964373e-16,0,0,0,0,0,0
3.248286,5.363483,-10.274898,1.891618e-12,0,0,1.891618e-12,-2.220446e-16,0,1.215687e-17,0,0,0,0,6.636019e-19,-2.227082e-16,1.116859e-16,-48.124477,1.489145e-16,1.486938e-16,0,0,0,0,0,0
3.295577,5.363483,-10.212888,1.891618e-12,0,0,1.891618e-12,0,0,1.381149e-17,0,0,0,0,1.381149e-17,-1.381149e-17,1.381149e-17,90,1.841532e-17,1.594814e-17,0,0,0,0,0,0
3.342867,5.363483,-10.140435,1.891618e-12,0,0,1.891618e-12,6.661338e-16,-1.110223e-16,-8.799315e-18,0,0,0,0,6.662334e-16,-1.111219e-16,3.886777e-16,44.351383,5.182369e-16,4.854543e-16,0,0,0,0,0,0
1.451249,5.316193,-9.893249,1.891618e-12,0,0,1.891618e-12,-6.661338e-16,2.220446e-16,3.563788e-17,0,0,0,0,2.234723e-16,-6.675615e-16,4.455169e-16,-47.29406,5.940225e-16,5.353129e-16,0,0,0,0,0,0
1.49854,5.316193,-9.962246,1.891618e-12,0,0,1.891618e-12,2.220446e-16,0,-2.26784e-17,0,0,0,0,2.243372e-16,-2.292574e-18,1.133149e-16,39.227543,1.510865e-16,1.503281e-16,0,0,0,0,0,0
1.54583,5.316193,-10.03221,1.891618e-12,0,0,1.891618e-12,0,0,-6.459584e-17,0,0,0,0,6.459584e-17,-6.459584e-17,6.459584e-17,0,8.612779e-17,7.458885e-17,0,0,0,0,0,0
1.593121,5.316193,-10.12417,1.891618e-12,0,0,1.891618e-12,-4.440892e-16,2.220446e-16,3.258081e-17,0,0,0,0,2.236344e-16,-4.456789e-16,3.346567e-16,-47.793468,4.462089e-16,3.934526e-16,0,0,0,0,0,0
1.640411,5.316193,-10.194006,1.891618e-12,0,0,1.891618e-12,2.220446e-16,0,1.678781e-17,0,0,0,0,2.233067e-16,-1.262078e-18,1.122844e-16,49.299309,1.497125e-16,1.492936e-16,0,0,0,0,0,0
1.687701,5.316193,-10.252703,1.891618e-12,0,0,1.891618e-12,0,-1.110223e-16,-1.668784e-17,0,0,0,0,2.454112e-18,-1.134764e-16,5.796526e-17,36.634052,7.728702e-17,7.648211e-17,0,0,0,0,0,0
1.734992,5.316193,-10.304814,1.891618e-12,0,0,1.891618e-12,0,0,2.821036e-17,0,0,0,0,2.821036e-17,-2.821036e-17,2.821036e-17,90,3.761382e-17,3.257452e-17,0,0,0,0,0,0
1.782282,5.316193,-10.352078,1.891618e-12,0,0,1.891618e-12,-2.220446e-16,2.220446e-16,3.371274e-17,0,0,0,0,2.245893e-16,-2.245893e-16,2.245893e-16,-49.316605,2.994524e-16,2.593334e-16,0,0,0,0,0,0
1.829573,5.316193,-10.394513,1.891618e-12,0,0,1.891618e-12,0,-1.110223e-16,2.077824e-17,0,0,0,0,3.761298e-18,-1.147836e-16,5.927245e-17,55.260628,7.902993e-17,7.780647e-17,0,0,0,0,0,0
1.876863,5.316193,-10.431683,1.891618e-12,0,0,1.891618e-12,0,2.220446e-16,-1.910547e-17,0,0,0,0,2.236765e-16,-1.631905e-18,1.126542e-16,-40.117897,1.502056e-16,1.496646e-16,0,0,0,0,0,0
1.924154,5.316193,-10.463814,1.891618e-12,0,0,1.891618e-12,0,2.220446e-16,-3.707716e-17,0,0,0,0,2.280721e-16,-6.027546e-18,1.170499e-16,-35.766338,1.560665e-16,1.540966e-16,0,0,0,0,0,0
1.971444,5.316193,-10.491257,1.891618e-12,0,0,1.891618e-12,2.220446e-16,-2.220446e-16,-6.459352e-18,0,0,0,0,2.221385e-16,-2.221385e-16,2.221385e-16,44.166859,2.961847e-16,2.565035e-16,0,0,0,0,0,0
2.018735,5.316193,-10.515078,1.891618e-12,0,0,1.891618e-12,4.440892e-16,-1.110223e-16,-9.786796e-18,0,0,0,0,4.442617e-16,-1.111948e-16,2.777283e-16,43.990276,3.703043e-16,3.39367e-16,0,0,0,0,0,0
2.066025,5.316193,-10.536247,1.891618e-12,0,0,1.891618e-12,-1.110223e-16,4.440892e-16,1.692185e-17,0,0,0,0,4.446046e-16,-1.115377e-16,2.780711e-16,-46.744427,3.707615e-16,3.397411e-16,0,0,0,0,0,0
2.113316,5.316193,-10.555058,1.891618e-12,0,0,1.891618e-12,0,2.220446e-16,1.858794e-17,0,0,0,0,2.235899e-16,-1.545292e-18,1.125676e-16,-49.752304,1.500901e-16,1.495777e-16,0,0,0,0,0,0
2.160606,5.316193,-10.571514,1.891618e-12,0,0,1.891618e-12,0,-2.220446e-16,2.530768e-17,0,0,0,0,2.847932e-18,-2.248925e-16,1.138702e-16,51.420616,1.51827e-16,1.508866e-16,0,0,0,0,0,0
2.207896,5.316193,-10.585295,1.891618e-12,0,0,1.891618e-12,-1.110223e-16,0,3.313074e-17,0,0,0,0,9.135069e-18,-1.201574e-16,6.464622e-17,-60.415016,8.619496e-17,8.331704e-17,0,0,0,0,0,0
2.255187,5.316193,-10.597316,1.891618e-12,0,0,1.891618e-12,0,-1.110223e-16,-1.669774e-17,0,0,0,0,2.456964e-18,-1.134793e-16,5.796812e-17,36.629364,7.729082e-17,7.648499e-17,0,0,0,0,0,0
2.302477,5.316193,-10.609332,1.891618e-12,0,0,1.891618e-12,0,2.220446e-16,1.160003e-18,0,0,0,0,2.220507e-16,-6.059915e-21,1.110284e-16,-45.299313,1.480378e-16,1.480358e-16,0,0,0,0,0,0
2.349768,5.316193,-10.621496,1.891618e-12,0,0,1.891618e-12,-1.110223e-16,-4.440892e-16,1.967589e-17,0,0,0,0,-1.09864e-16,-4.452475e-16,1.676918e-16,48.369122,2.23589e-16,2.678298e-16,0,0,0,0,0,0
2.397058,5.316193,-10.632274,1.891618e-12,0,0,1.891618e-12,2.220446e-16,-2.220446e-16,1.892229e-17,0,0,0,0,2.228494e-16,-2.228494e-16,2.228494e-16,47.435444,2.971325e-16,2.573243e-16,0,0,0,0,0,0
2.444349,5.316193,-10.638539,1.891618e-12,0,0,1.891618e-12,-1.110223e-16,2.220446e-16,-2.137873e-17,0,0,0,0,2.234112e-16,-1.123889e-16,1.679001e-16,-41.342331,2.238668e-16,1.973748e-16,0,0,0,0,0,0
2.491639,5.316193,-10.637823,1.891618e-12,0,0,1.891618e-12,0,2.220446e-16,2.413731e-17,0,0,0,0,2.246381e-16,-2.593548e-18,1.136159e-16,-51.132885,1.514878e-16,1.506307e-16,0,0,0,0,0,0
2.53893,5.316193,-10.630353,1.891618e-12,0,0,1.891618e-12,2.220446e-16,-1.110223e-16,5.37748e-18,0,0,0,0,2.221314e-16,-1.111091e-16,1.666202e-16,45.92474,2.221603e-16,1.959234e-16,0,0,0,0,0,0
2.58622,5.316193,-10.618948,1.891618e-12,0,0,1.891618e-12,0,0,3.611838e-17,0,0,0,0,3.611838e-17,-3.611838e-17,3.611838e-17,90,4.815784e-17,4.170591e-17,0,0,0,0,0,0
2.633511,5.316193,-10.607302,1.891618e-12,0,0,1.891618e-12,-3.330669e-16,2.220446e-16,1.790807e-17,0,0,0,0,2.226217e-16,-3.33644e-16,2.781329e-16,-46.845821,3.708438e-16,3.232853e-16,0,0,0,0,0,0
2.680801,5.316193,-10.597553,1.891618e-12,0,0,1.891618e-12,0,0,-3.056302e-18,0,0,0,0,3.056302e-18,-3.056302e-18,3.056302e-18,0,4.07507e-18,3.529114e-18,0,0,0,0,0,0
2.728091,5.316193,-10.588414,1.891618e-12,0,0,1.891618e-12,2.220446e-16,-1.110223e-16,1.848879e-18,0,0,0,0,2.220549e-16,-1.110326e-16,1.665437e-16,45.318039,2.220583e-16,1.958366e-16,0,0,0,0,0,0
2.775382,5.316193,-10.577889,1.891618e-12,0,0,1.891618e-12,-1.110223e-16,-1.110223e-16,-1.25234e-17,0,0,0,0,-9.849891e-17,-1.235457e-16,1.25234e-17,0,1.669786e-17,7.541429e-17,0,0,0,0,0,0
2.822672,5.316193,-10.564479,1.891618e-12,0,0,1.891618e-12,-2.220446e-16,2.220446e-16,-8.754845e-18,0,0,0,0,2.222171e-16,-2.222171e-16,2.222171e-16,-43.871048,2.962895e-16,2.565942e-16,0,0,0,0,0,0
2.869963,5.316193,-10.548454,1.891618e-12,0,0,1.891618e-12,-1.110223e-16,0,-5.143328e-17,0,0,0,0,2.016493e-17,-1.311872e-16,7.567609e-17,-23.591837,1.009014e-16,9.489667e-17,0,0,0,0,0,0
2.917253,5.316193,-10.530076,1.891618e-12,0,0,1.891618e-12,-1.110223e-16,0,3.991913e-17,0,0,0,0,1.286301e-17,-1.238853e-16,6.837415e-17,-62.860317,9.116554e-17,8.719471e-17,0,0,0,0,0,0
2.964544,5.316193,-10.509157,1.891618e-12,0,0,1.891618e-12,-1.110223e-16,0,1.406025e-17,0,0,0,0,1.75296e-18,-1.127753e-16,5.726411e-17,-52.106678,7.635215e-17,7.577459e-17,0,0,0,0,0,0
3.011834,5.316193,-10.48435,1.891618e-12,0,0,1.891618e-12,2.220446e-16,-2.220446e-16,-1.434607e-17,0,0,0,0,2.225076e-16,-2.225076e-16,2.225076e-16,43.151661,2.966768e-16,2.569296e-16,0,0,0,0,0,0
3.059125,5.316193,-10.454579,1.891618e-12,0,0,1.891618e-12,-2.220446e-16,0,7.859427e-17,0,0,0,0,2.500347e-17,-2.470481e-16,1.360258e-16,-62.64761,1.813677e-16,1.736343e-16,0,0,0,0,0,0
3.106415,5.316193,-10.419809,1.891618e-12,0,0,1.891618e-12,0,4.440892e-16,3.500149e-17,0,0,0,0,4.468309e-16,-2.741762e-18,2.247864e-16,-49.478989,2.997151e-16,2.988054e-16,0,0,0,0,0,0
3.153705,5.316193,-10.379356,1.891618e-12,0,0,1.891618e-12,0,-1.110223e-16,9.595284e-18,0,0,0,0,8.231844e-19,-1.118455e-16,5.633433e-17,49.903427,7.511245e-17,7.483956e-17,0,0,0,0,0,0
3.200996,5.316193,-10.33154,1.891618e-12,0,0,1.891618e-12,-2.220446e-16,-1.110223e-16,5.00859e-17,0,0,0,0,-9.176658e-17,-2.413003e-16,7.476687e-17,-66.029449,9.968917e-17,1.406392e-16,0,0,0,0,0,0
3.248286,5.316193,-10.276756,1.891618e-12,0,0,1.891618e-12,0,-2.220446e-16,5.483908e-17,0,0,0,0,1.28053e-17,-2.348499e-16,1.238276e-16,58.143452,1.651035e-16,1.610049e-16,0,0,0,0,0,0
3.295577,5.316193,-10.214242,1.891618e-12,0,0,1.891618e-12,-1.110223e-16,2.220446e-16,-2.181163e-17,0,0,0,0,2.234669e-16,-1.124446e-16,1.679558e-16,-41.269096,2.23941e-16,1.974379e-16,0,0,0,0,0,0
3.342867,5.316193,-10.141032,1.891618e-12,0,0,1.891618e-12,-4.440892e-16,-1.110223e-16,5.979408e-17,0,0,0,0,-1.00613e-16,-4.544985e-16,1.769427e-16,-54.875374,2.359236e-16,2.756514e-16,0,0,0,0,0,0
1.451249,5.268902,-9.892994,1.891618e-12,0,0,1.891618e-12,-2.220446e-16,-3.330669e-16,-8.849062e-18,0,0,0,0,-2.213437e-16,-3.337678e-16,5.621204e-17,40.471329,7.494939e-17,1.960913e-16,0,0,0,0,0,0
1.49854,5.268902,-9.962673,1.891618e-12,0,0,1.891618e-12,0,2.220446e-16,-8.290042e-18,0,0,0,0,2.223537e-16,-3.090788e-19,1.113314e-16,-42.864822,1.484418e-16,1.483389e-16,0,0,0,0,0,0
1.54583,5.268902,-10.03358,1.891618e-12,0,0,1.891618e-12,2.220446e-16,0,-1.983989e-17,0,0,0,0,2.238034e-16,-1.758781e-18,1.127811e-16,39.934044,1.503748e-16,1.49792e-16,0,0,0,0,0,0
1.593121,5.268902,-10.125612,1.891618e-12,0,0,1.891618e-12,2.220446e-16,2.220446e-16,-7.578398e-18,0,0,0,0,2.29623e-16,2.144662e-16,7.578398e-18,0,1.010453e-17,1.482882e-16,0,0,0,0,0,0
1.640411,5.268902,-10.195291,1.891618e-12,0,0,1.891618e-12,0,2.220446e-16,-7.416356e-18,0,0,0,0,2.22292e-16,-2.474328e-19,1.112697e-16,-43.089142,1.483596e-16,1.482772e-16,0,0,0,0,0,0
1.687701,5.268902,-10.254993,1.891618e-12,0,0,1.891618e-12,2.220446e-16,2.220446e-16,6.776388e-17,0,0,0,0,2.898085e-16,1.542807e-16,6.776388e-17,90,9.035184e-17,1.674377e-16,0,0,0,0,0,0
1.734992,5.268902,-10.308143,1.891618e-12,0,0,1.891618e-12,2.220446e-16,2.220446e-16,-9.943642e-18,0,0,0,0,2.319882e-16,2.12101e-16,9.943642e-18,0,1.325819e-17,1.484744e-16,0,0,0,0,0,0
1.782282,5.268902,-10.356149,1.891618e-12,0,0,1.891618e-12,2.220446e-16,-1.110223e-16,-2.55619e-18,0,0,0,0,2.220642e-16,-1.110419e-16,1.665531e-16,44.560307,2.220708e-16,1.958472e-16,0,0,0,0,0,0
1.829573,5.268902,-10.398609,1.891618e-12,0,0,1.891618e-12,0,-1.110223e-16,-2.706467e-17,0,0,0,0,6.246311e-18,-1.172686e-16,6.175746e-17,32.004139,8.234328e-17,8.034216e-17,0,0,0,0,0,0
1.876863,5.268902,-10.435438,1.891618e-12,0,0,1.891618e-12,0,-1.110223e-16,2.743306e-18,0,0,0,0,6.774441e-20,-1.110901e-16,5.557889e-17,46.4146,7.410519e-17,7.408262e-17,0,0,0,0,0,0
1.924154,5.268902,-10.467361,1.891618e-12,0,0,1.891618e-12,2.220446e-16,-1.110223e-16,-1.786544e-17,0,0,0,0,2.230002e-16,-1.119778e-16,1.67489e-16,41.938408,2.233187e-16,1.969085e-16,0,0,0,0,0,0
1.971444,5.268902,-10.494931,1.891618e-12,0,0,1.891618e-12,-1.110223e-16,-1.110223e-16,-3.962076e-18,0,0,0,0,-1.070602e-16,-1.149844e-16,3.962076e-18,0,5.282768e-18,7.415613e-17,0,0,0,0,0,0
2.018735,5.268902,-10.518962,1.891618e-12,0,0,1.891618e-12,0,-1.110223e-16,-1.515514e-17,0,0,0,0,2.031582e-18,-1.130539e-16,5.754273e-17,37.364883,7.672364e-17,7.60555e-17,0,0,0,0,0,0
2.066025,5.268902,-10.53992,1.891618e-12,0,0,1.891618e-12,0,0,-2.794274e-17,0,0,0,0,2.794274e-17,-2.794274e-17,2.794274e-17,0,3.725698e-17,3.226549e-17,0,0,0,0,0,0
2.113316,5.268902,-10.557934,1.891618e-12,0,0,1.891618e-12,-1.110223e-16,2.220446e-16,1.608482e-17,0,0,0,0,2.228196e-16,-1.117973e-16,1.673084e-16,-47.75843,2.230779e-16,1.967037e-16,0,0,0,0,0,0
2.160606,5.268902,-10.572952,1.891618e-12,0,0,1.891618e-12,2.220446e-16,-1.110223e-16,-2.786906e-17,0,0,0,0,2.243604e-16,-1.133381e-16,1.688493e-16,40.249847,2.251324e-16,1.984515e-16,0,0,0,0,0,0
2.207896,5.268902,-10.585021,1.891618e-12,0,0,1.891618e-12,2.220446e-16,2.220446e-16,4.72049e-17,0,0,0,0,2.692495e-16,1.748397e-16,4.72049e-17,90,6.293987e-17,1.577462e-16,0,0,0,0,0,0
2.255187,5.268902,-10.595267,1.891618e-12,0,0,1.891618e-12,0,-1.110223e-16,2.45132e-17,0,0,0,0,5.171508e-18,-1.161938e-16,6.068266e-17,56.912903,8.091022e-17,7.924265e-17,0,0,0,0,0,0
2.302477,5.268902,-10.605819,1.891618e-12,0,0,1.891618e-12,2.220446e-16,-1.110223e-16,1.873777e-18,0,0,0,0,2.220551e-16,-1.110328e-16,1.66544e-16,45.322323,2.220587e-16,1.958369e-16,0,0,0,0,0,0
2.349768,5.268902,-10.617503,1.891618e-12,0,0,1.891618e-12,0,2.220446e-16,-1.09233e-17,0,0,0,0,2.225807e-16,-5.360687e-19,1.115584e-16,-42.190422,1.487445e-16,1.485661e-16,0,0,0,0,0,0
2.397058,5.268902,-10.629121,1.891618e-12,0,0,1.891618e-12,0,2.220446e-16,3.126208e-17,0,0,0,0,2.263621e-16,-4.317498e-18,1.153398e-16,-52.863182,1.537864e-16,1.523676e-16,0,0,0,0,0,0
2.444349,5.268902,-10.637325,1.891618e-12,0,0,1.891618e-12,0,-1.110223e-16,8.784129e-18,0,0,0,0,6.907066e-19,-1.11713e-16,5.620186e-17,49.495987,7.493581e-17,7.470664e-17,0,0,0,0,0,0
2.491639,5.268902,-10.63915,1.891618e-12,0,0,1.891618e-12,2.220446e-16,0,-2.13524e-18,0,0,0,0,2.220651e-16,-2.053113e-20,1.110428e-16,44.449097,1.480571e-16,1.480503e-16,0,0,0,0,0,0
2.53893,5.268902,-10.633856,1.891618e-12,0,0,1.891618e-12,-1.110223e-16,-2.220446e-16,1.519647e-17,0,0,0,0,-1.089798e-16,-2.240871e-16,5.755363e-17,52.654961,7.673817e-17,1.293929e-16,0,0,0,0,0,0
2.58622,5.268902,-10.623877,1.891618e-12,0,0,1.891618e-12,2.220446e-16,0,-1.713968e-17,0,0,0,0,2.233598e-16,-1.315226e-18,1.123375e-16,40.611965,1.497834e-16,1.493469e-16,0,0,0,0,0,0
2.633511,5.268902,-10.61269,1.891618e-12,0,0,1.891618e-12,-1.110223e-16,0,3.026595e-17,0,0,0,0,7.714759e-18,-1.187371e-16,6.322591e-17,-59.300114,8.430121e-17,8.18509e-17,0,0,0,0,0,0
2.680801,5.268902,-10.602788,1.891618e-12,0,0,1.891618e-12,-1.110223e-16,0,-4.189658e-17,0,0,0,0,1.403604e-17,-1.250583e-16,6.954719e-17,-26.478312,9.272959e-17,8.842303e-17,0,0,0,0,0,0
2.728091,5.268902,-10.593236,1.891618e-12,0,0,1.891618e-12,0,2.220446e-16,2.782493e-18,0,0,0,0,2.220795e-16,-3.48626e-20,1.110572e-16,-45.717838,1.480762e-16,1.480646e-16,0,0,0,0,0,0
2.775382,5.268902,-10.582321,1.891618e-12,0,0,1.891618e-12,2.220446e-16,0,5.329702e-18,0,0,0,0,2.221725e-16,-1.278544e-19,1.111502e-16,46.374207,1.482002e-16,1.481576e-16,0,0,0,0,0,0
2.822672,5.268902,-10.568469,1.891618e-12,0,0,1.891618e-12,0,2.220446e-16,-1.534056e-17,0,0,0,0,2.230994e-16,-1.054833e-18,1.120771e-16,-41.066471,1.494362e-16,1.490858e-16,0,0,0,0,0,0
2.869963,5.268902,-10.551872,1.891618e-12,0,0,1.891618e-12,2.220446e-16,2.220446e-16,9.799059e-19,0,0,0,0,2.230245e-16,2.210647e-16,9.799059e-19,90,1.306541e-18,1.480341e-16,0,0,0,0,0,0
2.917253,5.268902,-10.532653,1.891618e-12,0,0,1.891618e-12,-1.110223e-16,-4.440892e-16,3.527171e-18,0,0,0,0,-1.10985e-16,-4.441265e-16,1.665708e-16,45.60667,2.220944e-16,2.668955e-16,0,0,0,0,0,0
2.964544,5.268902,-10.510927,1.891618e-12,0,0,1.891618e-12,-1.110223e-16,2.220446e-16,-1.447398e-17,0,0,0,0,2.226724e-16,-1.116501e-16,1.671613e-16,-42.516357,2.228817e-16,1.965369e-16,0,0,0,0,0,0
3.011834,5.268902,-10.485258,1.891618e-12,0,0,1.891618e-12,-1.110223e-16,-2.220446e-16,-1.74342e-17,0,0,0,0,-1.083489e-16,-2.24718e-16,5.818453e-17,36.282116,7.757937e-17,1.297685e-16,0,0,0,0,0,0
3.059125,5.268902,-10.455225,1.891618e-12,0,0,1.891618e-12,0,2.220446e-16,-3.504755e-17,0,0,0,0,2.274452e-16,-5.400559e-18,1.164229e-16,-36.240059,1.552305e-16,1.53462e-16,0,0,0,0,0,0
3.106415,5.268902,-10.420742,1.891618e-12,0,0,1.891618e-12,4.440892e-16,2.220446e-16,7.511483e-18,0,0,0,0,4.44343e-16,2.217908e-16,1.112761e-16,46.935295,1.483682e-16,2.565417e-16,0,0,0,0,0,0
3.153705,5.268902,-10.380896,1.891618e-12,0,0,1.891618e-12,2.220446e-16,2.220446e-16,9.521777e-18,0,0,0,0,2.315664e-16,2.125228e-16,9.521777e-18,90,1.26957e-17,1.484375e-16,0,0,0,0,0,0
3.200996,5.268902,-10.333588,1.891618e-12,0,0,1.891618e-12,2.220446e-16,4.440892e-16,-3.631651e-17,0,0,0,0,4.49878e-16,2.162558e-16,1.168111e-16,-35.943279,1.557482e-16,2.598017e-16,0,0,0,0,0,0
3.248286,5.268902,-10.279335,1.891618e-12,0,0,1.891618e-12,0,-2.220446e-16,-5.635276e-19,0,0,0,0,1.430169e-21,-2.22046e-16,1.110237e-16,44.854591,1.480316e-16,1.480312e-16,0,0,0,0,0,0
3.295577,5.268902,-10.216827,1.891618e-12,0,0,1.891618e-12,-1.110223e-16,4.440892e-16,-1.778371e-17,0,0,0,0,4.446584e-16,-1.115914e-16,2.781249e-16,-43.166962,3.708332e-16,3.397998e-16,0,0,0,0,0,0
3.342867,5.268902,-10.143452,1.891618e-12,0,0,1.891618e-12,6.661338e-16,0,-8.587759e-17,0,0,0,0,6.77027e-16,-1.089316e-17,3.439601e-16,37.770916,4.586134e-16,4.550258e-16,0,0,0,0,0,0
1.451249,5.221612,-9.890182,1.891618e-12,0,0,1.891618e-12,0,-3.330669e-16,3.483977e-17,0,0,0,0,3.605314e-18,-3.366722e-16,1.701388e-16,50.908096,2.268517e-16,2.256595e-16,0,0,0,0,0,0
1.49854,5.221612,-9.96081,1.891618e-12,0,0,1.891618e-12,2.220446e-16,0,-3.102654e-17,0,0,0,0,2.262985e-16,-4.253879e-18,1.152762e-16,37.193165,1.537016e-16,1.523034e-16,0,0,0,0,0,0
1.54583,5.221612,-10.031677,1.891618e-12,0,0,1.891618e-12,-2.220446e-16,0,-6.289052e-17,0,0,0,0,1.657538e-17,-2.3862e-16,1.275977e-16,-30.234928,1.701302e-16,1.648831e-16,0,0,0,0,0,0
1.593121,5.221612,-10.124072,1.891618e-12,0,0,1.891618e-12,2.220446e-16,-2.220446e-16,-1.62555e-17,0,0,0,0,2.226388e-16,-2.226388e-16,2.226388e-16,42.906471,2.968518e-16,2.570812e-16,0,0,0,0,0,0
1.640411,5.221612,-10.195825,1.891618e-12,0,0,1.891618e-12,0,0,-1.675006e-17,0,0,0,0,1.675006e-17,-1.675006e-17,1.675006e-17,0,2.233341e-17,1.93413e-17,0,0,0,0,0,0
1.687701,5.221612,-10.256872,1.891618e-12,0,0,1.891618e-12,0,0,1.159568e-17,0,0,0,0,1.159568e-17,-1.159568e-17,1.159568e-17,90,1.54609e-17,1.338953e-17,0,0,0,0,0,0
1.734992,5.221612,-10.31156,1.891618e-12,0,0,1.891618e-12,-2.220446e-16,-1.110223e-16,5.057595e-18,0,0,0,0,-1.107924e-16,-2.222745e-16,5.574107e-17,-47.602909,7.432143e-17,1.283305e-16,0,0,0,0,0,0
1.782282,5.221612,-10.360519,1.891618e-12,0,0,1.891618e-12,2.220446e-16,-1.110223e-16,5.027952e-18,0,0,0,0,2.221205e-16,-1.110982e-16,1.666093e-16,45.86467,2.221458e-16,1.95911e-16,0,0,0,0,0,0
1.829573,5.221612,-10.403179,1.891618e-12,0,0,1.891618e-12,-2.220446e-16,2.220446e-16,2.969825e-17,0,0,0,0,2.240218e-16,-2.240218e-16,2.240218e-16,-48.809021,2.986958e-16,2.586782e-16,0,0,0,0,0,0
1.876863,5.221612,-10.439831,1.891618e-12,0,0,1.891618e-12,0,-1.110223e-16,1.191718e-17,0,0,0,0,1.264786e-18,-1.122871e-16,5.677594e-17,51.058197,7.570125e-17,7.52832e-17,0,0,0,0,0,0
1.924154,5.221612,-10.471592,1.891618e-12,0,0,1.891618e-12,2.220446e-16,2.220446e-16,-3.64438e-17,0,0,0,0,2.584884e-16,1.856008e-16,3.64438e-17,0,4.859174e-17,1.53895e-16,0,0,0,0,0,0
1.971444,5.221612,-10.49922,1.891618e-12,0,0,1.891618e-12,-1.110223e-16,-1.110223e-16,-5.571379e-18,0,0,0,0,-1.054509e-16,-1.165937e-16,5.571379e-18,0,7.428505e-18,7.429393e-17,0,0,0,0,0,0
2.018735,5.221612,-10.523423,1.891618e-12,0,0,1.891618e-12,0,0,1.153108e-17,0,0,0,0,1.153108e-17,-1.153108e-17,1.153108e-17,90,1.537478e-17,1.331495e-17,0,0,0,0,0,0
2.066025,5.221612,-10.544219,1.891618e-12,0,0,1.891618e-12,-3.330669e-16,0,-3.455063e-17,0,0,0,0,3.546343e-18,-3.366132e-16,1.700798e-16,-39.139572,2.267731e-16,2.256002e-16,0,0,0,0,0,0
2.113316,5.221612,-10.561812,1.891618e-12,0,0,1.891618e-12,-1.110223e-16,0,8.591521e-18,0,0,0,0,6.609251e-19,-1.116832e-16,5.617208e-17,-49.398964,7.48961e-17,7.467677e-17,0,0,0,0,0,0
2.160606,5.221612,-10.576001,1.891618e-12,0,0,1.891618e-12,-1.110223e-16,4.440892e-16,-2.416908e-17,0,0,0,0,4.451395e-16,-1.120726e-16,2.786061e-16,-42.511669,3.714748e-16,3.403249e-16,0,0,0,0,0,0
2.207896,5.221612,-10.586904,1.891618e-12,0,0,1.891618e-12,-3.330669e-16,-1.110223e-16,-3.404253e-17,0,0,0,0,-1.059203e-16,-3.381689e-16,1.161243e-16,-36.476501,1.548324e-16,1.997313e-16,0,0,0,0,0,0
2.255187,5.221612,-10.595825,1.891618e-12,0,0,1.891618e-12,-2.220446e-16,-1.110223e-16,1.280302e-17,0,0,0,0,-1.09565e-16,-2.235019e-16,5.696846e-17,-51.493755,7.595794e-17,1.290471e-16,0,0,0,0,0,0
2.302477,5.221612,-10.605037,1.891618e-12,0,0,1.891618e-12,2.220446e-16,2.220446e-16,1.05397e-17,0,0,0,0,2.325843e-16,2.115049e-16,1.05397e-17,90,1.405294e-17,1.485292e-16,0,0,0,0,0,0
2.349768,5.221612,-10.615868,1.891618e-12,0,0,1.891618e-12,2.220446e-16,0,2.575298e-17,0,0,0,0,2.249923e-16,-2.947728e-18,1.1397e-16,51.529751,1.5196e-16,1.509871e-16,0,0,0,0,0,0
2.397058,5.221612,-10.62768,1.891618e-12,0,0,1.891618e-12,0,-1.110223e-16,-1.962882e-17,0,0,0,0,3.368204e-18,-1.143905e-16,5.887936e-17,35.263168,7.850581e-17,7.74075e-17,0,0,0,0,0,0
2.444349,5.221612,-10.636969,1.891618e-12,0,0,1.891618e-12,-4.440892e-16,2.220446e-16,-1.332784e-17,0,0,0,0,2.223112e-16,-4.443558e-16,3.333335e-16,-43.854252,4.444446e-16,3.919521e-16,0,0,0,0,0,0
2.491639,5.221612,-10.64063,1.891618e-12,0,0,1.891618e-12,2.220446e-16,2.220446e-16,-2.32959e-17,0,0,0,0,2.453405e-16,1.987487e-16,2.32959e-17,0,3.10612e-17,1.50454e-16,0,0,0,0,0,0
2.53893,5.221612,-10.637516,1.891618e-12,0,0,1.891618e-12,-2.220446e-16,-2.220446e-16,-2.409418e-17,0,0,0,0,-1.979504e-16,-2.461388e-16,2.409418e-17,0,3.212558e-17,1.506215e-16,0,0,0,0,0,0
2.58622,5.221612,-10.629467,1.891618e-12,0,0,1.891618e-12,2.220446e-16,2.220446e-16,-7.053421e-18,0,0,0,0,2.29098e-16,2.149912e-16,7.053421e-18,0,9.404561e-18,1.482536e-16,0,0,0,0,0,0
2.633511,5.221612,-10.619655,1.891618e-12,0,0,1.891618e-12,2.220446e-16,2.220446e-16,-3.10388e-17,0,0,0,0,2.530834e-16,1.910058e-16,3.10388e-17,0,4.138507e-17,1.523068e-16,0,0,0,0,0,0
2.680801,5.221612,-10.610229,1.891618e-12,0,0,1.891618e-12,-1.110223e-16,-1.110223e-16,-8.205482e-18,0,0,0,0,-1.028168e-16,-1.192278e-16,8.205482e-18,0,1.094064e-17,7.461886e-17,0,0,0,0,0,0
2.728091,5.221612,-10.600577,1.891618e-12,0,0,1.891618e-12,2.220446e-16,0,3.000915e-17,0,0,0,0,2.260288e-16,-3.984223e-18,1.150065e-16,52.562756,1.53342e-16,1.520314e-16,0,0,0,0,0,0
2.775382,5.221612,-10.589231,1.891618e-12,0,0,1.891618e-12,-1.110223e-16,0,2.384591e-17,0,0,0,0,4.905034e-18,-1.159273e-16,6.041619e-17,-56.623447,8.055491e-17,7.897069e-17,0,0,0,0,0,0
2.822672,5.221612,-10.574802,1.891618e-12,0,0,1.891618e-12,-3.330669e-16,-2.220446e-16,-3.489844e-18,0,0,0,0,-2.21935e-16,-3.331765e-16,5.562074e-17,-43.201347,7.416099e-17,1.958664e-16,0,0,0,0,0,0
2.869963,5.221612,-10.557198,1.891618e-12,0,0,1.891618e-12,-1.110223e-16,-4.440892e-16,-6.68701e-17,0,0,0,0,-9.809823e-17,-4.570133e-16,1.794575e-16,34.061245,2.392767e-16,2.778107e-16,0,0,0,0,0,0
2.917253,5.221612,-10.536673,1.891618e-12,0,0,1.891618e-12,0,0,2.66471e-17,0,0,0,0,2.66471e-17,-2.66471e-17,2.66471e-17,90,3.552946e-17,3.076942e-17,0,0,0,0,0,0
2.964544,5.221612,-10.513582,1.891618e-12,0,0,1.891618e-12,-2.220446e-16,2.220446e-16,7.737078e-18,0,0,0,0,2.221794e-16,-2.221794e-16,2.221794e-16,-45.997822,2.962392e-16,2.565506e-16,0,0,0,0,0,0
3.011834,5.221612,-10.486787,1.891618e-12,0,0,1.891618e-12,2.220446e-16,2.220446e-16,-1.074202e-17,0,0,0,0,2.327866e-16,2.113026e-16,1.074202e-17,0,1.43227e-17,1.485485e-16,0,0,0,0,0,0
3.059125,5.221612,-10.45642,1.891618e-12,0,0,1.891618e-12,4.440892e-16,-4.440892e-16,-4.507991e-17,0,0,0,0,4.463714e-16,-4.463714e-16,4.463714e-16,42.101852,5.951619e-16,5.154253e-16,0,0,0,0,0,0
3.106415,5.221612,-10.422401,1.891618e-12,0,0,1.891618e-12,0,-1.110223e-16,2.274249e-17,0,0,0,0,4.478088e-18,-1.155004e-16,5.998924e-17,56.139267,7.998565e-17,7.853553e-17,0,0,0,0,0,0
3.153705,5.221612,-10.38352,1.891618e-12,0,0,1.891618e-12,-2.220446e-16,-1.110223e-16,-6.80719e-18,0,0,0,0,-1.106065e-16,-2.224604e-16,5.592696e-17,-41.504436,7.456929e-17,1.284383e-16,0,0,0,0,0,0
3.200996,5.221612,-10.337404,1.891618e-12,0,0,1.891618e-12,0,0,-2.305397e-17,0,0,0,0,2.305397e-17,-2.305397e-17,2.305397e-17,0,3.073862e-17,2.662043e-17,0,0,0,0,0,0
3.248286,5.221612,-10.284253,1.891618e-12,0,0,1.891618e-12,0,-1.110223e-16,5.35614e-17,0,0,0,0,2.162711e-17,-1.326494e-16,7.713826e-17,66.987953,1.02851e-16,9.645361e-17,0,0,0,0,0,0
3.295577,5.221612,-10.222382,1.891618e-12,0,0,1.891618e-12,-1.110223e-16,0,-6.471658e-19,0,0,0,0,3.772299e-21,-1.110261e-16,5.551492e-17,-44.666031,7.40199e-17,7.401864e-17,0,0,0,0,0,0
3.342867,5.221612,-10.149591,1.891618e-12,0,0,1.891618e-12,0,-3.330669e-16,-2.744084e-18,0,0,0,0,2.260652e-20,-3.330895e-16,1.665561e-16,44.527992,2.220748e-16,2.220672e-16,0,0,0,0,0,0
1.451249,5.174321,-9.886916,1.891618e-12,0,0,1.891618e-12,4.440892e-16,-3.330669e-16,1.604864e-18,0,0,0,0,4.440925e-16,-3.330702e-16,3.885814e-16,45.118317,5.181085e-16,4.502187e-16,0,0,0,0,0,0
1.49854,5.174321,-9.959189,1.891618e-12,0,0,1.891618e-12,0,0,2.09506e-17,0,0,0,0,2.09506e-17,-2.09506e-17,2.09506e-17,90,2.793414e-17,2.419167e-17,0,0,0,0,0,0
1.54583,5.174321,-10.030772,1.891618e-12,0,0,1.891618e-12,0,-2.220446e-16,-2.202799e-17,0,0,0,0,2.164199e-18,-2.242088e-16,1.131865e-16,39.388832,1.509153e-16,1.501991e-16,0,0,0,0,0,0
1.593121,5.174321,-10.124095,1.891618e-12,0,0,1.891618e-12,0,0,1.709019e-17,0,0,0,0,1.709019e-17,-1.709019e-17,1.709019e-17,90,2.278692e-17,1.973405e-17,0,0,0,0,0,0
1.640411,5.174321,-10.197597,1.891618e-12,0,0,1.891618e-12,0,2.220446e-16,-8.842548e-19,0,0,0,0,2.220481e-16,-3.521339e-21,1.110258e-16,-44.771835,1.480344e-16,1.480333e-16,0,0,0,0,0,0
1.687701,5.174321,-10.259574,1.891618e-12,0,0,1.891618e-12,-1.110223e-16,-2.220446e-16,-4.286768e-17,0,0,0,0,-9.639697e-17,-2.366699e-16,7.013649e-17,26.161703,9.351531e-17,1.374219e-16,0,0,0,0,0,0
1.734992,5.174321,-10.315301,1.891618e-12,0,0,1.891618e-12,-2.220446e-16,2.220446e-16,-4.346664e-17,0,0,0,0,2.26259e-16,-2.26259e-16,2.26259e-16,-39.462025,3.016787e-16,2.612614e-16,0,0,0,0,0,0
1.782282,5.174321,-10.364949,1.891618e-12,0,0,1.891618e-12,-2.220446e-16,0,-1.30797e-17,0,0,0,0,7.678137e-19,-2.228124e-16,1.117901e-16,-41.640438,1.490535e-16,1.487982e-16,0,0,0,0,0,0
1.829573,5.174321,-10.407642,1.891618e-12,0,0,1.891618e-12,0,2.220446e-16,-2.933453e-17,0,0,0,0,2.258546e-16,-3.810038e-18,1.148323e-16,-37.599716,1.531098e-16,1.518557e-16,0,0,0,0,0,0
1.876863,5.174321,-10.443858,1.891618e-12,0,0,1.891618e-12,2.220446e-16,2.220446e-16,8.820269e-18,0,0,0,0,2.308649e-16,2.132243e-16,8.820269e-18,90,1.176036e-17,1.483797e-16,0,0,0,0,0,0
1.924154,5.174321,-10.475308,1.891618e-12,0,0,1.891618e-12,-1.110223e-16,-4.440892e-16,-7.613654e-18,0,0,0,0,-1.108483e-16,-4.442632e-16,1.667074e-16,43.691174,2.222765e-16,2.670092e-16,0,0,0,0,0,0
1.971444,5.174321,-10.502922,1.891618e-12,0,0,1.891618e-12,0,-1.110223e-16,-1.22014e-17,0,0,0,0,1.325123e-18,-1.123474e-16,5.683627e-17,38.801731,7.57817e-17,7.534388e-17,0,0,0,0,0,0
2.018735,5.174321,-10.527191,1.891618e-12,0,0,1.891618e-12,0,-2.220446e-16,-3.459403e-17,0,0,0,0,5.264836e-18,-2.273094e-16,1.162871e-16,36.346603,1.550495e-16,1.533247e-16,0,0,0,0,0,0
2.066025,5.174321,-10.548257,1.891618e-12,0,0,1.891618e-12,-3.330669e-16,0,1.927121e-17,0,0,0,0,1.111321e-18,-3.341782e-16,1.676448e-16,-48.300446,2.235264e-16,2.231568e-16,0,0,0,0,0,0
2.113316,5.174321,-10.566329,1.891618e-12,0,0,1.891618e-12,-2.220446e-16,2.220446e-16,-2.500689e-17,0,0,0,0,2.234483e-16,-2.234483e-16,2.234483e-16,-41.787182,2.979311e-16,2.580159e-16,0,0,0,0,0,0
2.160606,5.174321,-10.581078,1.891618e-12,0,0,1.891618e-12,0,0,-2.808793e-17,0,0,0,0,2.808793e-17,-2.808793e-17,2.808793e-17,0,3.745057e-17,3.243314e-17,0,0,0,0,0,0
2.207896,5.174321,-10.592349,1.891618e-12,0,0,1.891618e-12,0,0,2.74431e-17,0,0,0,0,2.74431e-17,-2.74431e-17,2.74431e-17,90,3.65908e-17,3.168857e-17,0,0,0,0,0,0
2.255187,5.174321,-10.60092,1.891618e-12,0,0,1.891618e-12,2.220446e-16,-2.220446e-16,3.580937e-17,0,0,0,0,2.249136e-16,-2.249136e-16,2.249136e-16,49.580635,2.998848e-16,2.597078e-16,0,0,0,0,0,0
2.302477,5.174321,-10.609084,1.891618e-12,0,0,1.891618e-12,-2.220446e-16,-1.110223e-16,-3.340178e-17,0,0,0,0,-1.017479e-16,-2.31319e-16,6.478555e-17,-29.482065,8.638072e-17,1.338737e-16,0,0,0,0,0,0
2.349768,5.174321,-10.61873,1.891618e-12,0,0,1.891618e-12,0,0,3.967485e-17,0,0,0,0,3.967485e-17,-3.967485e-17,3.967485e-17,90,5.28998e-17,4.581257e-17,0,0,0,0,0,0
2.397058,5.174321,-10.629601,1.891618e-12,0,0,1.891618e-12,0,0,2.706399e-17,0,0,0,0,2.706399e-17,-2.706399e-17,2.706399e-17,90,3.608532e-17,3.12508e-17,0,0,0,0,0,0
2.444349,5.174321,-10.638495,1.891618e-12,0,0,1.891618e-12,0,-2.220446e-16,3.003327e-17,0,0,0,0,3.990518e-18,-2.260351e-16,1.150128e-16,52.568554,1.533504e-16,1.520377e-16,0,0,0,0,0,0
2.491639,5.174321,-10.64215,1.891618e-12,0,0,1.891618e-12,2.220446e-16,0,3.726615e-17,0,0,0,0,2.281322e-16,-6.08755e-18,1.171098e-16,54.277515,1.561465e-16,1.541574e-16,0,0,0,0,0,0
2.53893,5.174321,-10.639719,1.891618e-12,0,0,1.891618e-12,-1.110223e-16,2.220446e-16,-7.833624e-19,0,0,0,0,2.220465e-16,-1.110241e-16,1.665353e-16,-44.865242,2.220471e-16,1.95827e-16,0,0,0,0,0,0
2.58622,5.174321,-10.63296,1.891618e-12,0,0,1.891618e-12,2.220446e-16,-1.110223e-16,2.183893e-17,0,0,0,0,2.234705e-16,-1.124482e-16,1.679593e-16,48.735523,2.239457e-16,1.97442e-16,0,0,0,0,0,0
2.633511,5.174321,-10.624558,1.891618e-12,0,0,1.891618e-12,2.220446e-16,-1.110223e-16,-2.324199e-18,0,0,0,0,2.220608e-16,-1.110385e-16,1.665497e-16,44.600204,2.220662e-16,1.958433e-16,0,0,0,0,0,0
2.680801,5.174321,-10.61604,1.891618e-12,0,0,1.891618e-12,-1.110223e-16,-2.220446e-16,-7.152291e-17,0,0,0,0,-7.599609e-17,-2.570708e-16,9.053736e-17,18.908075,1.207165e-16,1.524969e-16,0,0,0,0,0,0
2.728091,5.174321,-10.606772,1.891618e-12,0,0,1.891618e-12,-2.220446e-16,0,-2.191653e-18,0,0,0,0,2.163023e-20,-2.220662e-16,1.110439e-16,-44.434544,1.480586e-16,1.480514e-16,0,0,0,0,0,0
2.775382,5.174321,-10.595305,1.891618e-12,0,0,1.891618e-12,0,2.220446e-16,-7.432531e-18,0,0,0,0,2.222931e-16,-2.48512e-19,1.112708e-16,-43.084988,1.483611e-16,1.482783e-16,0,0,0,0,0,0
2.822672,5.174321,-10.580587,1.891618e-12,0,0,1.891618e-12,-1.110223e-16,-1.110223e-16,1.767317e-17,0,0,0,0,-9.334913e-17,-1.286955e-16,1.767317e-17,90,2.356422e-17,7.677666e-17,0,0,0,0,0,0
2.869963,5.174321,-10.562391,1.891618e-12,0,0,1.891618e-12,0,-2.220446e-16,5.602708e-18,0,0,0,0,1.412796e-19,-2.221859e-16,1.111636e-16,46.444481,1.482181e-16,1.48171e-16,0,0,0,0,0,0
2.917253,5.174321,-10.540933,1.891618e-12,0,0,1.891618e-12,-1.110223e-16,2.220446e-16,-9.436162e-18,0,0,0,0,2.223117e-16,-1.112894e-16,1.668006e-16,-43.378479,2.224008e-16,1.961278e-16,0,0,0,0,0,0
2.964544,5.174321,-10.516637,1.891618e-12,0,0,1.891618e-12,2.220446e-16,2.220446e-16,-1.822923e-18,0,0,0,0,2.238675e-16,2.202217e-16,1.822923e-18,0,2.430564e-18,1.480447e-16,0,0,0,0,0,0
3.011834,5.174321,-10.489095,1.891618e-12,0,0,1.891618e-12,0,-1.110223e-16,9.674364e-18,0,0,0,0,8.367079e-19,-1.11859e-16,5.634786e-17,49.943047,7.513048e-17,7.485314e-17,0,0,0,0,0,0
3.059125,5.174321,-10.458729,1.891618e-12,0,0,1.891618e-12,-2.220446e-16,0,-8.041228e-19,0,0,0,0,2.912051e-21,-2.220475e-16,1.110252e-16,-44.792511,1.480336e-16,1.480327e-16,0,0,0,0,0,0
3.106415,5.174321,-10.425632,1.891618e-12,0,0,1.891618e-12,2.220446e-16,2.220446e-16,-3.556446e-17,0,0,0,0,2.576091e-16,1.864801e-16,3.556446e-17,0,4.741928e-17,1.536204e-16,0,0,0,0,0,0
3.153705,5.174321,-10.388205,1.891618e-12,0,0,1.891618e-12,0,2.220446e-16,2.194056e-17,0,0,0,0,2.241918e-16,-2.147216e-18,1.131695e-16,-50.589458,1.508927e-16,1.501821e-16,0,0,0,0,0,0
3.200996,5.174321,-10.344015,1.891618e-12,0,0,1.891618e-12,-2.220446e-16,-2.220446e-16,2.671579e-18,0,0,0,0,-2.19373e-16,-2.247162e-16,2.671579e-18,90,3.562106e-18,1.480619e-16,0,0,0,0,0,0
3.248286,5.174321,-10.292229,1.891618e-12,0,0,1.891618e-12,0,-1.110223e-16,1.682477e-17,0,0,0,0,2.493682e-18,-1.13516e-16,5.800484e-17,53.430714,7.733978e-17,7.652209e-17,0,0,0,0,0,0
3.295577,5.174321,-10.231624,1.891618e-12,0,0,1.891618e-12,0,2.220446e-16,-6.355925e-18,0,0,0,0,2.222264e-16,-1.817866e-19,1.112041e-16,-43.361721,1.482721e-16,1.482116e-16,0,0,0,0,0,0
3.342867,5.174321,-10.160329,1.891618e-12,0,0,1.891618e-12,-2.220446e-16,0,-3.04984e-17,0,0,0,0,4.112853e-18,-2.261575e-16,1.151352e-16,-37.319729,1.535135e-16,1.521611e-16,0,0,0,0,0,0
1.451249,5.127031,-9.881954,1.891618e-12,0,0,1.891618e-12,-2.220446e-16,-2.220446e-16,-8.777035e-17,0,0,0,0,-1.342743e-16,-3.09815e-16,8.777035e-17,0,1.170271e-16,1.793999e-16,0,0,0,0,0,0
1.49854,5.127031,-9.959849,1.891618e-12,0,0,1.891618e-12,-1.110223e-16,-4.440892e-16,-3.372865e-17,0,0,0,0,-1.07641e-16,-4.474705e-16,1.699147e-16,39.275272,2.26553e-16,2.696914e-16,0,0,0,0,0,0
1.54583,5.127031,-10.032368,1.891618e-12,0,0,1.891618e-12,4.440892e-16,-4.440892e-16,3.668025e-17,0,0,0,0,4.456015e-16,-4.456015e-16,4.456015e-16,47.360859,5.941353e-16,5.145363e-16,0,0,0,0,0,0
1.593121,5.127031,-10.127565,1.891618e-12,0,0,1.891618e-12,-1.110223e-16,-2.220446e-16,1.05533e-17,0,0,0,0,-1.100281e-16,-2.230389e-16,5.65054e-17,50.382061,7.534053e-17,1.287754e-16,0,0,0,0,0,0
1.640411,5.127031,-10.201645,1.891618e-12,0,0,1.891618e-12,-1.110223e-16,-2.220446e-16,5.305334e-18,0,0,0,0,-1.107694e-16,-2.222976e-16,5.57641e-17,47.729656,7.435213e-17,1.283438e-16,0,0,0,0,0,0
1.687701,5.127031,-10.263335,1.891618e-12,0,0,1.891618e-12,0,-2.220446e-16,6.312908e-18,0,0,0,0,1.793362e-19,-2.222239e-16,1.112016e-16,46.627213,1.482689e-16,1.482091e-16,0,0,0,0,0,0
1.734992,5.127031,-10.319055,1.891618e-12,0,0,1.891618e-12,2.220446e-16,-1.110223e-16,4.552106e-18,0,0,0,0,2.221068e-16,-1.110845e-16,1.665957e-16,45.782879,2.221275e-16,1.958955e-16,0,0,0,0,0,0
1.782282,5.127031,-10.36849,1.891618e-12,0,0,1.891618e-12,-2.220446e-16,2.220446e-16,1.058386e-18,0,0,0,0,2.220471e-16,-2.220471e-16,2.220471e-16,-45.136551,2.960628e-16,2.563979e-16,0,0,0,0,0,0
1.829573,5.127031,-10.410798,1.891618e-12,0,0,1.891618e-12,0,2.220446e-16,9.465507e-18,0,0,0,0,2.224474e-16,-4.027732e-19,1.114251e-16,-47.436562,1.485668e-16,1.484327e-16,0,0,0,0,0,0
1.876863,5.127031,-10.446465,1.891618e-12,0,0,1.891618e-12,2.220446e-16,0,-1.008022e-17,0,0,0,0,2.225013e-16,-4.566752e-19,1.11479e-16,42.40604,1.486386e-16,1.484866e-16,0,0,0,0,0,0
1.924154,5.127031,-10.477291,1.891618e-12,0,0,1.891618e-12,-1.110223e-16,2.220446e-16,-2.110602e-17,0,0,0,0,2.233767e-16,-1.123544e-16,1.678656e-16,-41.388496,2.238208e-16,1.973356e-16,0,0,0,0,0,0
1.971444,5.127031,-10.504572,1.891618e-12,0,0,1.891618e-12,-2.220446e-16,2.220446e-16,-2.460488e-17,0,0,0,0,2.234037e-16,-2.234037e-16,2.234037e-16,-41.838409,2.978716e-16,2.579644e-16,0,0,0,0,0,0
2.018735,5.127031,-10.529008,1.891618e-12,0,0,1.891618e-12,0,2.220446e-16,3.262123e-17,0,0,0,0,2.267379e-16,-4.693281e-18,1.157156e-16,-53.187077,1.542874e-16,1.527471e-16,0,0,0,0,0,0
2.066025,5.127031,-10.550985,1.891618e-12,0,0,1.891618e-12,0,-2.220446e-16,-2.970675e-17,0,0,0,0,3.905687e-18,-2.259503e-16,1.14928e-16,37.510014,1.532373e-16,1.519522e-16,0,0,0,0,0,0
2.113316,5.127031,-10.570544,1.891618e-12,0,0,1.891618e-12,0,0,-1.914944e-17,0,0,0,0,1.914944e-17,-1.914944e-17,1.914944e-17,0,2.553259e-17,2.211187e-17,0,0,0,0,0,0
2.160606,5.127031,-10.5871,1.891618e-12,0,0,1.891618e-12,0,-2.220446e-16,4.600117e-17,0,0,0,0,9.152819e-18,-2.311974e-16,1.201751e-16,56.253136,1.602335e-16,1.572714e-16,0,0,0,0,0,0
2.207896,5.127031,-10.599734,1.891618e-12,0,0,1.891618e-12,0,0,4.451407e-17,0,0,0,0,4.451407e-17,-4.451407e-17,4.451407e-17,90,5.935209e-17,5.140042e-17,0,0,0,0,0,0
2.255187,5.127031,-10.608561,1.891618e-12,0,0,1.891618e-12,-1.110223e-16,-4.440892e-16,4.370393e-17,0,0,0,0,-1.053831e-16,-4.497284e-16,1.721727e-16,52.352364,2.295636e-16,2.71594e-16,0,0,0,0,0,0
2.302477,5.127031,-10.615895,1.891618e-12,0,0,1.891618e-12,-1.110223e-16,0,-5.426362e-18,0,0,0,0,2.645901e-19,-1.112869e-16,5.577574e-17,-42.208462,7.436765e-17,7.427961e-17,0,0,0,0,0,0
2.349768,5.127031,-10.624108,1.891618e-12,0,0,1.891618e-12,0,2.220446e-16,-2.968127e-18,0,0,0,0,2.220843e-16,-3.966864e-20,1.11062e-16,-44.234295,1.480826e-16,1.480694e-16,0,0,0,0,0,0
2.397058,5.127031,-10.6331,1.891618e-12,0,0,1.891618e-12,2.220446e-16,2.220446e-16,1.424282e-17,0,0,0,0,2.362874e-16,2.078018e-16,1.424282e-17,90,1.899043e-17,1.489405e-16,0,0,0,0,0,0
2.444349,5.127031,-10.640123,1.891618e-12,0,0,1.891618e-12,2.220446e-16,2.220446e-16,2.0014e-17,0,0,0,0,2.420586e-16,2.020306e-16,2.0014e-17,90,2.668534e-17,1.498228e-16,0,0,0,0,0,0
2.491639,5.127031,-10.642293,1.891618e-12,0,0,1.891618e-12,2.220446e-16,-1.110223e-16,7.183119e-18,0,0,0,0,2.221995e-16,-1.111772e-16,1.666883e-16,46.234909,2.222511e-16,1.960005e-16,0,0,0,0,0,0
2.53893,5.127031,-10.639228,1.891618e-12,0,0,1.891618e-12,2.220446e-16,0,8.247456e-18,0,0,0,0,2.223505e-16,-3.059158e-19,1.113282e-16,47.124249,1.484376e-16,1.483358e-16,0,0,0,0,0,0
2.58622,5.127031,-10.632962,1.891618e-12,0,0,1.891618e-12,-2.220446e-16,0,-9.267501e-18,0,0,0,0,3.861273e-19,-2.224307e-16,1.114084e-16,-42.61417,1.485446e-16,1.48416e-16,0,0,0,0,0,0
2.633511,5.127031,-10.625806,1.891618e-12,0,0,1.891618e-12,4.440892e-16,-1.110223e-16,4.104444e-17,0,0,0,0,4.471076e-16,-1.140407e-16,2.805741e-16,49.205917,3.740989e-16,3.424739e-16,0,0,0,0,0,0
2.680801,5.127031,-10.61833,1.891618e-12,0,0,1.891618e-12,2.220446e-16,2.220446e-16,1.84976e-17,0,0,0,0,2.405422e-16,2.03547e-16,1.84976e-17,90,2.466347e-17,1.495628e-16,0,0,0,0,0,0
2.728091,5.127031,-10.609689,1.891618e-12,0,0,1.891618e-12,0,0,4.012728e-18,0,0,0,0,4.012728e-18,-4.012728e-18,4.012728e-18,90,5.350304e-18,4.633499e-18,0,0,0,0,0,0
2.775382,5.127031,-10.598711,1.891618e-12,0,0,1.891618e-12,2.220446e-16,0,4.755841e-17,0,0,0,0,2.318021e-16,-9.75747e-18,1.207798e-16,56.594372,1.610397e-16,1.578877e-16,0,0,0,0,0,0
2.822672,5.127031,-10.584251,1.891618e-12,0,0,1.891618e-12,2.220446e-16,0,-1.776416e-17,0,0,0,0,2.234568e-16,-1.412198e-18,1.124345e-16,40.454712,1.499127e-16,1.494442e-16,0,0,0,0,0,0
2.869963,5.127031,-10.56618,1.891618e-12,0,0,1.891618e-12,0,0,4.706185e-17,0,0,0,0,4.706185e-17,-4.706185e-17,4.706185e-17,90,6.274913e-17,5.434235e-17,0,0,0,0,0,0
2.917253,5.127031,-10.544579,1.891618e-12,0,0,1.891618e-12,0,-1.110223e-16,2.4326e-18,0,0,0,0,5.327492e-20,-1.110756e-16,5.556443e-17,46.254601,7.40859e-17,7.406815e-17,0,0,0,0,0,0
2.964544,5.127031,-10.519708,1.891618e-12,0,0,1.891618e-12,-1.110223e-16,0,-4.020897e-18,0,0,0,0,1.454344e-19,-1.111677e-16,5.565658e-17,-42.928535,7.420878e-17,7.416035e-17,0,0,0,0,0,0
3.011834,5.127031,-10.491923,1.891618e-12,0,0,1.891618e-12,2.220446e-16,-2.220446e-16,-7.156272e-18,0,0,0,0,2.221599e-16,-2.221599e-16,2.221599e-16,44.077026,2.962132e-16,2.565281e-16,0,0,0,0,0,0
3.059125,5.127031,-10.461701,1.891618e-12,0,0,1.891618e-12,4.440892e-16,0,2.650962e-17,0,0,0,0,4.456661e-16,-1.576876e-18,2.236215e-16,48.404121,2.98162e-16,2.976377e-16,0,0,0,0,0,0
3.106415,5.127031,-10.429344,1.891618e-12,0,0,1.891618e-12,0,-1.110223e-16,6.488487e-17,0,0,0,0,2.987933e-17,-1.409016e-16,8.539048e-17,69.72596,1.13854e-16,1.053166e-16,0,0,0,0,0,0
3.153705,5.127031,-10.39299,1.891618e-12,0,0,1.891618e-12,0,-1.110223e-16,4.495147e-17,0,0,0,0,1.591799e-17,-1.269403e-16,7.142914e-17,64.499825,9.523886e-17,9.040122e-17,0,0,0,0,0,0
3.200996,5.127031,-10.350464,1.891618e-12,0,0,1.891618e-12,-2.220446e-16,2.220446e-16,2.208545e-17,0,0,0,0,2.231402e-16,-2.231402e-16,2.231402e-16,-47.840092,2.975203e-16,2.576602e-16,0,0,0,0,0,0
3.248286,5.127031,-10.300203,1.891618e-12,0,0,1.891618e-12,-2.220446e-16,-1.110223e-16,-2.67885e-18,0,0,0,0,-1.109577e-16,-2.221092e-16,5.557575e-17,-43.618587,7.4101e-17,1.282348e-16,0,0,0,0,0,0
3.295577,5.127031,-10.241532,1.891618e-12,0,0,1.891618e-12,-1.110223e-16,2.220446e-16,1.876144e-17,0,0,0,0,2.230981e-16,-1.120758e-16,1.675869e-16,-48.213882,2.234493e-16,1.970196e-16,0,0,0,0,0,0
3.342867,5.127031,-10.172638,1.891618e-12,0,0,1.891618e-12,2.220446e-16,-1.110223e-16,6.07641e-18,0,0,0,0,2.221554e-16,-1.111331e-16,1.666443e-16,46.04483,2.221924e-16,1.959506e-16,0,0,0,0,0,0
1.49854,5.07974,-9.958181,1.891618e-12,0,0,1.891618e-12,-2.220446e-16,2.220446e-16,6.317175e-18,0,0,0,0,2.221344e-16,-2.221344e-16,2.221344e-16,-45.814812,2.961793e-16,2.564988e-16,0,0,0,0,0,0
1.54583,5.07974,-10.039377,1.891618e-12,0,0,1.891618e-12,2.220446e-16,2.220446e-16,9.302631e-18,0,0,0,0,2.313472e-16,2.12742e-16,9.302631e-18,90,1.240351e-17,1.48419e-16,0,0,0,0,0,0
1.593121,5.07974,-10.135507,1.891618e-12,0,0,1.891618e-12,2.220446e-16,0,4.792788e-17,0,0,0,0,2.31948e-16,-9.903432e-18,1.209257e-16,56.674831,1.612343e-16,1.580366e-16,0,0,0,0,0,0
1.640411,5.07974,-10.206451,1.891618e-12,0,0,1.891618e-12,0,0,4.521009e-17,0,0,0,0,4.521009e-17,-4.521009e-17,4.521009e-17,90,6.028011e-17,5.220411e-17,0,0,0,0,0,0
1.687701,5.07974,-10.267132,1.891618e-12,0,0,1.891618e-12,-2.220446e-16,2.220446e-16,2.702761e-17,0,0,0,0,2.236835e-16,-2.236835e-16,2.236835e-16,-48.469994,2.982446e-16,2.582874e-16,0,0,0,0,0,0
1.734992,5.07974,-10.322151,1.891618e-12,0,0,1.891618e-12,-2.220446e-16,0,1.796931e-17,0,0,0,0,1.444794e-18,-2.234894e-16,1.124671e-16,-49.596886,1.499561e-16,1.494769e-16,0,0,0,0,0,0
1.782282,5.07974,-10.370901,1.891618e-12,0,0,1.891618e-12,0,2.220446e-16,-1.828336e-17,0,0,0,0,2.2354e-16,-1.495398e-18,1.125177e-16,-40.324181,1.500236e-16,1.495276e-16,0,0,0,0,0,0
1.829573,5.07974,-10.412475,1.891618e-12,0,0,1.891618e-12,0,0,-2.685169e-17,0,0,0,0,2.685169e-17,-2.685169e-17,2.685169e-17,0,3.580226e-17,3.100566e-17,0,0,0,0,0,0
1.876863,5.07974,-10.447275,1.891618e-12,0,0,1.891618e-12,-2.220446e-16,2.220446e-16,-2.730436e-17,0,0,0,0,2.237171e-16,-2.237171e-16,2.237171e-16,-41.494827,2.982895e-16,2.583262e-16,0,0,0,0,0,0
1.924154,5.07974,-10.477298,1.891618e-12,0,0,1.891618e-12,2.220446e-16,0,7.177621e-17,0,0,0,0,2.432259e-16,-2.118124e-17,1.322035e-16,61.441387,1.762714e-16,1.696523e-16,0,0,0,0,0,0
1.971444,5.07974,-10.50409,1.891618e-12,0,0,1.891618e-12,0,2.220446e-16,1.965827e-17,0,0,0,0,2.237716e-16,-1.726973e-18,1.127493e-16,-50.020531,1.503324e-16,1.4976e-16,0,0,0,0,0,0
2.018735,5.07974,-10.528793,1.891618e-12,0,0,1.891618e-12,0,0,3.939622e-17,0,0,0,0,3.939622e-17,-3.939622e-17,3.939622e-17,90,5.25283e-17,4.549084e-17,0,0,0,0,0,0
2.066025,5.07974,-10.552092,1.891618e-12,0,0,1.891618e-12,2.220446e-16,0,-7.607883e-19,0,0,0,0,2.220472e-16,-2.606647e-21,1.110249e-16,44.803692,1.480332e-16,1.480323e-16,0,0,0,0,0,0
2.113316,5.07974,-10.573692,1.891618e-12,0,0,1.891618e-12,2.220446e-16,-1.110223e-16,1.903895e-17,0,0,0,0,2.231294e-16,-1.121071e-16,1.676182e-16,48.261013,2.23491e-16,1.970551e-16,0,0,0,0,0,0
2.160606,5.07974,-10.592506,1.891618e-12,0,0,1.891618e-12,-1.110223e-16,2.220446e-16,-6.173062e-18,0,0,0,0,2.22159e-16,-1.111367e-16,1.666478e-16,-43.938564,2.221971e-16,1.959546e-16,0,0,0,0,0,0
2.207896,5.07974,-10.606614,1.891618e-12,0,0,1.891618e-12,-3.330669e-16,-2.220446e-16,9.106485e-18,0,0,0,0,-2.213026e-16,-3.338089e-16,5.625314e-17,-49.658134,7.500419e-17,1.961071e-16,0,0,0,0,0,0
2.255187,5.07974,-10.615611,1.891618e-12,0,0,1.891618e-12,0,0,-1.637129e-17,0,0,0,0,1.637129e-17,-1.637129e-17,1.637129e-17,0,2.182838e-17,1.890393e-17,0,0,0,0,0,0
2.302477,5.07974,-10.622193,1.891618e-12,0,0,1.891618e-12,0,0,-1.72748e-17,0,0,0,0,1.72748e-17,-1.72748e-17,1.72748e-17,0,2.303307e-17,1.994722e-17,0,0,0,0,0,0
2.349768,5.07974,-10.62888,1.891618e-12,0,0,1.891618e-12,2.220446e-16,0,-1.814164e-17,0,0,0,0,2.235171e-16,-1.472456e-18,1.124948e-16,40.359791,1.49993e-16,1.495046e-16,0,0,0,0,0,0
2.397058,5.07974,-10.635844,1.891618e-12,0,0,1.891618e-12,2.220446e-16,2.220446e-16,1.013712e-17,0,0,0,0,2.321817e-16,2.119075e-16,1.013712e-17,90,1.351616e-17,1.484918e-16,0,0,0,0,0,0
2.444349,5.07974,-10.640812,1.891618e-12,0,0,1.891618e-12,2.220446e-16,0,2.221372e-17,0,0,0,0,2.242451e-16,-2.200491e-18,1.132228e-16,50.657265,1.509637e-16,1.502356e-16,0,0,0,0,0,0
2.491639,5.07974,-10.641261,1.891618e-12,0,0,1.891618e-12,2.220446e-16,-1.110223e-16,-4.551927e-18,0,0,0,0,2.221068e-16,-1.110845e-16,1.665957e-16,44.217152,2.221275e-16,1.958955e-16,0,0,0,0,0,0
2.53893,5.07974,-10.637288,1.891618e-12,0,0,1.891618e-12,-1.110223e-16,2.220446e-16,4.58532e-17,0,0,0,0,2.282419e-16,-1.172196e-16,1.727307e-16,-52.697163,2.303076e-16,2.028565e-16,0,0,0,0,0,0
2.58622,5.07974,-10.63119,1.891618e-12,0,0,1.891618e-12,0,-2.220446e-16,-6.048434e-18,0,0,0,0,1.646356e-19,-2.222092e-16,1.111869e-16,43.440819,1.482493e-16,1.481944e-16,0,0,0,0,0,0
2.633511,5.07974,-10.624688,1.891618e-12,0,0,1.891618e-12,0,0,-2.566627e-17,0,0,0,0,2.566627e-17,-2.566627e-17,2.566627e-17,0,3.422169e-17,2.963685e-17,0,0,0,0,0,0
2.680801,5.07974,-10.617947,1.891618e-12,0,0,1.891618e-12,0,0,2.786808e-17,0,0,0,0,2.786808e-17,-2.786808e-17,2.786808e-17,90,3.715744e-17,3.217928e-17,0,0,0,0,0,0
2.728091,5.07974,-10.609844,1.891618e-12,0,0,1.891618e-12,4.440892e-16,-1.110223e-16,-9.725081e-18,0,0,0,0,4.442595e-16,-1.111926e-16,2.777261e-16,43.996635,3.703014e-16,3.393646e-16,0,0,0,0,0,0
2.775382,5.07974,-10.59935,1.891618e-12,0,0,1.891618e-12,2.220446e-16,0,7.600078e-18,0,0,0,0,2.223044e-16,-2.598292e-19,1.112821e-16,46.95805,1.483762e-16,1.482896e-16,0,0,0,0,0,0
2.822672,5.07974,-10.585578,1.891618e-12,0,0,1.891618e-12,-1.110223e-16,2.220446e-16,1.253895e-17,0,0,0,0,2.22516e-16,-1.114937e-16,1.670048e-16,-47.15295,2.226731e-16,1.963595e-16,0,0,0,0,0,0
2.869963,5.07974,-10.568264,1.891618e-12,0,0,1.891618e-12,2.220446e-16,0,8.135051e-18,0,0,0,0,2.223423e-16,-2.97645e-19,1.113199e-16,47.095402,1.484266e-16,1.483275e-16,0,0,0,0,0,0
2.917253,5.07974,-10.547265,1.891618e-12,0,0,1.891618e-12,0,2.220446e-16,1.971771e-17,0,0,0,0,2.237819e-16,-1.737353e-18,1.127597e-16,-50.0354,1.503462e-16,1.497704e-16,0,0,0,0,0,0
2.964544,5.07974,-10.522546,1.891618e-12,0,0,1.891618e-12,2.220446e-16,0,1.824602e-17,0,0,0,0,2.23534e-16,-1.489336e-18,1.125116e-16,49.666439,1.500155e-16,1.495216e-16,0,0,0,0,0,0
3.011834,5.07974,-10.494491,1.891618e-12,0,0,1.891618e-12,2.220446e-16,-1.110223e-16,-1.745225e-17,0,0,0,0,2.229566e-16,-1.119343e-16,1.674454e-16,42.008698,2.232606e-16,1.968591e-16,0,0,0,0,0,0
3.059125,5.07974,-10.464019,1.891618e-12,0,0,1.891618e-12,2.220446e-16,-1.110223e-16,-2.592577e-17,0,0,0,0,2.240506e-16,-1.130283e-16,1.685394e-16,40.575638,2.247192e-16,1.981e-16,0,0,0,0,0,0
3.106415,5.07974,-10.431348,1.891618e-12,0,0,1.891618e-12,2.220446e-16,2.220446e-16,1.008852e-17,0,0,0,0,2.321331e-16,2.119561e-16,1.008852e-17,90,1.345136e-17,1.484874e-16,0,0,0,0,0,0
3.153705,5.07974,-10.394842,1.891618e-12,0,0,1.891618e-12,0,0,-1.406373e-17,0,0,0,0,1.406373e-17,-1.406373e-17,1.406373e-17,0,1.875164e-17,1.62394e-17,0,0,0,0,0,0
3.200996,5.07974,-10.352848,1.891618e-12,0,0,1.891618e-12,2.220446e-16,2.220446e-16,8.939354e-18,0,0,0,0,2.30984e-16,2.131053e-16,8.939354e-18,90,1.191914e-17,1.483892e-16,0,0,0,0,0,0
3.248286,5.07974,-10.303843,1.891618e-12,0,0,1.891618e-12,0,0,-2.447198e-17,0,0,0,0,2.447198e-17,-2.447198e-17,2.447198e-17,0,3.262931e-17,2.825781e-17,0,0,0,0,0,0
3.295577,5.07974,-10.247253,1.891618e-12,0,0,1.891618e-12,0,2.220446e-16,5.939881e-18,0,0,0,0,2.222034e-16,-1.587833e-19,1.111811e-16,-46.53125,1.482414e-16,1.481885e-16,0,0,0,0,0,0
3.342867,5.07974,-10.181369,1.891618e-12,0,0,1.891618e-12,2.220446e-16,2.220446e-16,-7.519896e-17,0,0,0,0,2.972436e-16,1.468457e-16,7.519896e-17,0,1.002653e-16,1.716177e-16,0,0,0,0,0,0
1.49854,5.03245,-9.957004,1.891618e-12,0,0,1.891618e-12,0,-3.330669e-16,3.951391e-18,0,0,0,0,4.687133e-20,-3.331138e-16,1.665803e-16,45.679611,2.221071e-16,2.220915e-16,0,0,0,0,0,0
1.54583,5.03245,-10.046389,1.891618e-12,0,0,1.891618e-12,4.440892e-16,2.220446e-16,2.185806e-17,0,0,0,0,4.462205e-16,2.199134e-16,1.131536e-16,50.56897,1.508714e-16,2.576343e-16,0,0,0,0,0,0
1.593121,5.03245,-10.142967,1.891618e-12,0,0,1.891618e-12,-2.220446e-16,0,-2.083837e-17,0,0,0,0,1.938706e-18,-2.239833e-16,1.12961e-16,-39.684765,1.506147e-16,1.499726e-16,0,0,0,0,0,0
1.640411,5.03245,-10.211606,1.891618e-12,0,0,1.891618e-12,0,-2.220446e-16,-7.438755e-17,0,0,0,0,2.261698e-17,-2.446616e-16,1.336393e-16,28.088493,1.781857e-16,1.711456e-16,0,0,0,0,0,0
1.687701,5.03245,-10.271264,1.891618e-12,0,0,1.891618e-12,2.220446e-16,0,9.67616e-18,0,0,0,0,2.224655e-16,-4.208657e-19,1.114432e-16,47.490517,1.485909e-16,1.484508e-16,0,0,0,0,0,0
1.734992,5.03245,-10.325303,1.891618e-12,0,0,1.891618e-12,0,-2.220446e-16,4.92459e-17,0,0,0,0,1.043185e-17,-2.324765e-16,1.214541e-16,56.960262,1.619389e-16,1.58576e-16,0,0,0,0,0,0
1.782282,5.03245,-10.372954,1.891618e-12,0,0,1.891618e-12,0,-2.220446e-16,4.576179e-18,0,0,0,0,9.427171e-20,-2.221389e-16,1.111166e-16,46.180157,1.481554e-16,1.48124e-16,0,0,0,0,0,0
1.829573,5.03245,-10.413377,1.891618e-12,0,0,1.891618e-12,0,0,-3.210525e-18,0,0,0,0,3.210525e-18,-3.210525e-18,3.210525e-18,0,4.2807e-18,3.707195e-18,0,0,0,0,0,0
1.876863,5.03245,-10.447171,1.891618e-12,0,0,1.891618e-12,-2.220446e-16,0,-2.383449e-17,0,0,0,0,2.5296e-18,-2.245742e-16,1.135519e-16,-38.941769,1.514025e-16,1.505664e-16,0,0,0,0,0,0
1.924154,5.03245,-10.476577,1.891618e-12,0,0,1.891618e-12,2.220446e-16,0,-1.998415e-17,0,0,0,0,2.238289e-16,-1.784249e-18,1.128066e-16,39.89798,1.504087e-16,1.498175e-16,0,0,0,0,0,0
1.971444,5.03245,-10.503144,1.891618e-12,0,0,1.891618e-12,-1.110223e-16,2.220446e-16,-1.280191e-17,0,0,0,0,2.225359e-16,-1.115136e-16,1.670248e-16,-42.802078,2.226997e-16,1.963821e-16,0,0,0,0,0,0
2.018735,5.03245,-10.528206,1.891618e-12,0,0,1.891618e-12,2.220446e-16,2.220446e-16,1.171187e-17,0,0,0,0,2.337565e-16,2.103327e-16,1.171187e-17,90,1.561582e-17,1.486462e-16,0,0,0,0,0,0
2.066025,5.03245,-10.55258,1.891618e-12,0,0,1.891618e-12,2.220446e-16,2.220446e-16,8.053419e-20,0,0,0,0,2.221251e-16,2.219641e-16,8.053419e-20,90,1.073789e-19,1.480298e-16,0,0,0,0,0,0
2.113316,5.03245,-10.575825,1.891618e-12,0,0,1.891618e-12,-3.330669e-16,-2.220446e-16,-1.608529e-17,0,0,0,0,-2.197611e-16,-3.353504e-16,5.779467e-17,-36.920086,7.705956e-17,1.967038e-16,0,0,0,0,0,0
2.160606,5.03245,-10.596087,1.891618e-12,0,0,1.891618e-12,0,0,-8.362422e-18,0,0,0,0,8.362422e-18,-8.362422e-18,8.362422e-18,0,1.11499e-17,9.656094e-18,0,0,0,0,0,0
2.207896,5.03245,-10.611028,1.891618e-12,0,0,1.891618e-12,-2.220446e-16,2.220446e-16,1.159824e-18,0,0,0,0,2.220476e-16,-2.220476e-16,2.220476e-16,-45.149639,2.960635e-16,2.563985e-16,0,0,0,0,0,0
2.255187,5.03245,-10.619862,1.891618e-12,0,0,1.891618e-12,2.220446e-16,-1.110223e-16,-1.253137e-17,0,0,0,0,2.225154e-16,-1.114931e-16,1.670043e-16,42.848347,2.226724e-16,1.963588e-16,0,0,0,0,0,0
2.302477,5.03245,-10.625519,1.891618e-12,0,0,1.891618e-12,2.220446e-16,-1.110223e-16,-4.209287e-17,0,0,0,0,2.272819e-16,-1.162596e-16,1.717708e-16,37.907528,2.290277e-16,2.017667e-16,0,0,0,0,0,0
2.349768,5.03245,-10.630964,1.891618e-12,0,0,1.891618e-12,2.220446e-16,2.220446e-16,4.475848e-18,0,0,0,0,2.265205e-16,2.175688e-16,4.475848e-18,90,5.967798e-18,1.481199e-16,0,0,0,0,0,0
2.397058,5.03245,-10.636865,1.891618e-12,0,0,1.891618e-12,0,2.220446e-16,-2.449184e-17,0,0,0,0,2.24714e-16,-2.669394e-18,1.136917e-16,-38.779819,1.515889e-16,1.50707e-16,0,0,0,0,0,0
2.444349,5.03245,-10.640773,1.891618e-12,0,0,1.891618e-12,-1.110223e-16,4.440892e-16,-5.063352e-17,0,0,0,0,4.486699e-16,-1.15603e-16,2.821364e-16,-39.830708,3.761819e-16,3.44181e-16,0,0,0,0,0,0
2.491639,5.03245,-10.640626,1.891618e-12,0,0,1.891618e-12,2.220446e-16,2.220446e-16,2.337841e-17,0,0,0,0,2.45423e-16,1.986662e-16,2.337841e-17,90,3.117121e-17,1.50471e-16,0,0,0,0,0,0
2.53893,5.03245,-10.636516,1.891618e-12,0,0,1.891618e-12,-2.220446e-16,0,-7.954698e-18,0,0,0,0,2.846104e-19,-2.223292e-16,1.113069e-16,-42.950893,1.484092e-16,1.483144e-16,0,0,0,0,0,0
2.58622,5.03245,-10.630832,1.891618e-12,0,0,1.891618e-12,0,2.220446e-16,1.271331e-17,0,0,0,0,2.227701e-16,-7.255377e-19,1.117478e-16,-48.266281,1.489971e-16,1.487559e-16,0,0,0,0,0,0
2.633511,5.03245,-10.624789,1.891618e-12,0,0,1.891618e-12,-2.220446e-16,2.220446e-16,2.016411e-17,0,0,0,0,2.229583e-16,-2.229583e-16,2.229583e-16,-47.594429,2.972777e-16,2.574501e-16,0,0,0,0,0,0
2.680801,5.03245,-10.618219,1.891618e-12,0,0,1.891618e-12,0,2.220446e-16,3.163486e-17,0,0,0,0,2.264637e-16,-4.419095e-18,1.154414e-16,-52.952229,1.539219e-16,1.524702e-16,0,0,0,0,0,0
2.728091,5.03245,-10.6099,1.891618e-12,0,0,1.891618e-12,2.220446e-16,0,-3.435256e-17,0,0,0,0,2.272378e-16,-5.193231e-18,1.162155e-16,36.403435,1.549541e-16,1.532523e-16,0,0,0,0,0,0
2.775382,5.03245,-10.599221,1.891618e-12,0,0,1.891618e-12,0,2.220446e-16,1.661663e-17,0,0,0,0,2.232812e-16,-1.236612e-18,1.122589e-16,-49.256115,1.496786e-16,1.492681e-16,0,0,0,0,0,0
2.822672,5.03245,-10.585877,1.891618e-12,0,0,1.891618e-12,-1.110223e-16,2.220446e-16,-3.393372e-17,0,0,0,0,2.254667e-16,-1.144444e-16,1.699555e-16,-39.241394,2.266074e-16,1.997066e-16,0,0,0,0,0,0
2.869963,5.03245,-10.569413,1.891618e-12,0,0,1.891618e-12,-1.110223e-16,-5.551115e-16,2.876834e-17,0,0,0,0,-1.091664e-16,-5.569674e-16,2.239005e-16,48.69109,2.98534e-16,3.408016e-16,0,0,0,0,0,0
2.917253,5.03245,-10.549413,1.891618e-12,0,0,1.891618e-12,-1.110223e-16,2.220446e-16,1.919004e-17,0,0,0,0,2.231466e-16,-1.121243e-16,1.676355e-16,-48.286667,2.235139e-16,1.970746e-16,0,0,0,0,0,0
2.964544,5.03245,-10.52541,1.891618e-12,0,0,1.891618e-12,2.220446e-16,2.220446e-16,-1.460247e-17,0,0,0,0,2.366471e-16,2.074421e-16,1.460247e-17,0,1.946996e-17,1.48987e-16,0,0,0,0,0,0
3.011834,5.03245,-10.497209,1.891618e-12,0,0,1.891618e-12,0,2.220446e-16,-1.21437e-17,0,0,0,0,2.227068e-16,-6.621689e-19,1.116845e-16,-41.87888,1.489126e-16,1.486924e-16,0,0,0,0,0,0
3.059125,5.03245,-10.465684,1.891618e-12,0,0,1.891618e-12,0,2.220446e-16,-6.161638e-18,0,0,0,0,2.222155e-16,-1.708512e-19,1.111932e-16,-43.411697,1.482575e-16,1.482006e-16,0,0,0,0,0,0
3.106415,5.03245,-10.431433,1.891618e-12,0,0,1.891618e-12,0,2.220446e-16,-1.617208e-17,0,0,0,0,2.232163e-16,-1.171671e-18,1.12194e-16,-40.856148,1.49592e-16,1.492029e-16,0,0,0,0,0,0
3.153705,5.03245,-10.393335,1.891618e-12,0,0,1.891618e-12,0,0,-1.608029e-17,0,0,0,0,1.608029e-17,-1.608029e-17,1.608029e-17,0,2.144038e-17,1.856792e-17,0,0,0,0,0,0
3.200996,5.03245,-10.350539,1.891618e-12,0,0,1.891618e-12,0,4.440892e-16,2.659797e-17,0,0,0,0,4.456765e-16,-1.587366e-18,2.23632e-16,-48.415359,2.98176e-16,2.976483e-16,0,0,0,0,0,0
3.248286,5.03245,-10.30222,1.891618e-12,0,0,1.891618e-12,0,2.220446e-16,-6.933509e-18,0,0,0,0,2.222609e-16,-2.162933e-19,1.112386e-16,-43.213219,1.483181e-16,1.482461e-16,0,0,0,0,0,0
3.295577,5.03245,-10.247499,1.891618e-12,0,0,1.891618e-12,2.220446e-16,2.220446e-16,1.750788e-17,0,0,0,0,2.395525e-16,2.045367e-16,1.750788e-17,90,2.334384e-17,1.494038e-16,0,0,0,0,0,0
3.342867,5.03245,-10.184666,1.891618e-12,0,0,1.891618e-12,-1.110223e-16,-1.110223e-16,-1.082468e-16,0,0,0,0,-2.775474e-18,-2.192691e-16,1.082468e-16,0,1.443291e-16,1.452631e-16,0,0,0,0,0,0
1.49854,4.98516,-9.958322,1.891618e-12,0,0,1.891618e-12,0,-3.330669e-16,-2.627252e-17,0,0,0,0,2.059656e-18,-3.351266e-16,1.685931e-16,40.517418,2.247908e-16,2.241074e-16,0,0,0,0,0,0
1.54583,4.98516,-10.050301,1.891618e-12,0,0,1.891618e-12,2.220446e-16,2.220446e-16,1.010398e-18,0,0,0,0,2.23055e-16,2.210342e-16,1.010398e-18,90,1.347197e-18,1.480343e-16,0,0,0,0,0,0
1.593121,4.98516,-10.147661,1.891618e-12,0,0,1.891618e-12,-1.110223e-16,-2.220446e-16,3.954639e-17,0,0,0,0,-9.837625e-17,-2.346906e-16,6.815721e-17,62.73312,9.087627e-17,1.360876e-16,0,0,0,0,0,0
1.640411,4.98516,-10.216787,1.891618e-12,0,0,1.891618e-12,0,-1.110223e-16,3.474039e-17,0,0,0,0,9.974595e-18,-1.209969e-16,6.548575e-17,61.01973,8.731433e-17,8.418666e-17,0,0,0,0,0,0
1.687701,4.98516,-10.275877,1.891618e-12,0,0,1.891618e-12,-2.220446e-16,0,5.528104e-17,0,0,0,0,1.300167e-17,-2.350463e-16,1.24024e-16,-58.234985,1.653653e-16,1.612063e-16,0,0,0,0,0,0
1.734992,4.98516,-10.329147,1.891618e-12,0,0,1.891618e-12,-2.220446e-16,2.220446e-16,3.298464e-17,0,0,0,0,2.244812e-16,-2.244812e-16,2.244812e-16,-49.224739,2.993082e-16,2.592085e-16,0,0,0,0,0,0
1.782282,4.98516,-10.375668,1.891618e-12,0,0,1.891618e-12,2.220446e-16,2.220446e-16,2.748893e-17,0,0,0,0,2.495335e-16,1.945557e-16,2.748893e-17,90,3.665191e-17,1.513946e-16,0,0,0,0,0,0
1.829573,4.98516,-10.4148,1.891618e-12,0,0,1.891618e-12,2.220446e-16,-1.110223e-16,4.001902e-19,0,0,0,0,2.220451e-16,-1.110228e-16,1.665339e-16,45.068844,2.220452e-16,1.958255e-16,0,0,0,0,0,0
1.876863,4.98516,-10.44771,1.891618e-12,0,0,1.891618e-12,-2.220446e-16,0,5.695463e-18,0,0,0,0,1.459931e-19,-2.221906e-16,1.111683e-16,-46.468353,1.482244e-16,1.481757e-16,0,0,0,0,0,0
1.924154,4.98516,-10.476667,1.891618e-12,0,0,1.891618e-12,2.220446e-16,4.440892e-16,-2.723062e-17,0,0,0,0,4.473799e-16,2.187539e-16,1.14313e-16,-38.109509,1.524173e-16,2.583159e-16,0,0,0,0,0,0
1.971444,4.98516,-10.503147,1.891618e-12,0,0,1.891618e-12,2.220446e-16,0,1.873464e-17,0,0,0,0,2.236142e-16,-1.569608e-18,1.125919e-16,49.789116,1.501225e-16,1.496021e-16,0,0,0,0,0,0
2.018735,4.98516,-10.528199,1.891618e-12,0,0,1.891618e-12,0,-2.220446e-16,-2.907899e-17,0,0,0,0,3.745023e-18,-2.257896e-16,1.147673e-16,37.661388,1.530231e-16,1.517902e-16,0,0,0,0,0,0
2.066025,4.98516,-10.552637,1.891618e-12,0,0,1.891618e-12,-1.110223e-16,-2.220446e-16,-1.686021e-18,0,0,0,0,-1.109967e-16,-2.220702e-16,5.553675e-17,44.130154,7.4049e-17,1.282123e-16,0,0,0,0,0,0
2.113316,4.98516,-10.576323,1.891618e-12,0,0,1.891618e-12,-1.110223e-16,0,2.637381e-17,0,0,0,0,5.946687e-18,-1.16969e-16,6.145784e-17,-57.706394,8.194379e-17,8.003523e-17,0,0,0,0,0,0
2.160606,4.98516,-10.596796,1.891618e-12,0,0,1.891618e-12,2.220446e-16,-1.110223e-16,1.40156e-17,0,0,0,0,2.226333e-16,-1.11611e-16,1.671222e-16,47.405361,2.228296e-16,1.964925e-16,0,0,0,0,0,0
2.207896,4.98516,-10.611331,1.891618e-12,0,0,1.891618e-12,4.440892e-16,4.440892e-16,-5.161076e-17,0,0,0,0,4.957e-16,3.924785e-16,5.161076e-17,0,6.881435e-17,3.01998e-16,0,0,0,0,0,0
2.255187,4.98516,-10.619312,1.891618e-12,0,0,1.891618e-12,-5.551115e-16,0,-1.216742e-17,0,0,0,0,2.665683e-19,-5.553781e-16,2.778223e-16,-43.744946,3.704298e-16,3.703409e-16,0,0,0,0,0,0
2.302477,4.98516,-10.623946,1.891618e-12,0,0,1.891618e-12,0,-2.220446e-16,4.23763e-17,0,0,0,0,7.812469e-18,-2.298571e-16,1.188348e-16,55.445724,1.584464e-16,1.559075e-16,0,0,0,0,0,0
2.349768,4.98516,-10.628891,1.891618e-12,0,0,1.891618e-12,-1.110223e-16,-2.220446e-16,3.141727e-17,0,0,0,0,-1.027484e-16,-2.303185e-16,6.378505e-17,59.754131,8.504673e-17,1.332316e-16,0,0,0,0,0,0
2.397058,4.98516,-10.635163,1.891618e-12,0,0,1.891618e-12,0,0,1.186524e-17,0,0,0,0,1.186524e-17,-1.186524e-17,1.186524e-17,90,1.582032e-17,1.37008e-17,0,0,0,0,0,0
2.444349,4.98516,-10.639985,1.891618e-12,0,0,1.891618e-12,0,2.220446e-16,-3.674776e-17,0,0,0,0,2.279682e-16,-5.923624e-18,1.169459e-16,-35.842873,1.559279e-16,1.539913e-16,0,0,0,0,0,0
2.491639,4.98516,-10.641176,1.891618e-12,0,0,1.891618e-12,2.220446e-16,2.220446e-16,-6.325501e-19,0,0,0,0,2.226772e-16,2.214121e-16,6.325501e-19,0,8.434002e-19,1.480315e-16,0,0,0,0,0,0
2.53893,4.98516,-10.638504,1.891618e-12,0,0,1.891618e-12,2.220446e-16,-1.110223e-16,3.716539e-17,0,0,0,0,2.261413e-16,-1.15119e-16,1.706302e-16,51.290291,2.275069e-16,2.004722e-16,0,0,0,0,0,0
2.58622,4.98516,-10.633857,1.891618e-12,0,0,1.891618e-12,-1.110223e-16,-1.110223e-16,-1.907974e-17,0,0,0,0,-9.194257e-17,-1.30102e-16,1.907974e-17,0,2.543965e-17,7.722424e-17,0,0,0,0,0,0
2.633511,4.98516,-10.628204,1.891618e-12,0,0,1.891618e-12,0,0,-1.525234e-17,0,0,0,0,1.525234e-17,-1.525234e-17,1.525234e-17,0,2.033646e-17,1.761189e-17,0,0,0,0,0,0
2.680801,4.98516,-10.621181,1.891618e-12,0,0,1.891618e-12,0,2.220446e-16,-1.522229e-17,0,0,0,0,2.230833e-16,-1.038707e-18,1.12061e-16,-41.09642,1.494147e-16,1.490696e-16,0,0,0,0,0,0
2.728091,4.98516,-10.611851,1.891618e-12,0,0,1.891618e-12,2.220446e-16,-1.110223e-16,-2.830635e-17,0,0,0,0,2.244332e-16,-1.134108e-16,1.68922e-16,40.176701,2.252293e-16,1.98534e-16,0,0,0,0,0,0
2.775382,4.98516,-10.600167,1.891618e-12,0,0,1.891618e-12,0,-1.110223e-16,4.094751e-18,0,0,0,0,1.508187e-19,-1.111731e-16,5.566197e-17,47.109375,7.421596e-17,7.416574e-17,0,0,0,0,0,0
2.822672,4.98516,-10.586395,1.891618e-12,0,0,1.891618e-12,2.220446e-16,0,-4.910391e-18,0,0,0,0,2.221531e-16,-1.085375e-19,1.111308e-16,43.733761,1.481745e-16,1.481383e-16,0,0,0,0,0,0
2.869963,4.98516,-10.570351,1.891618e-12,0,0,1.891618e-12,-1.110223e-16,2.220446e-16,-3.837432e-17,0,0,0,0,2.264087e-16,-1.153864e-16,1.708976e-16,-38.511917,2.278634e-16,2.007756e-16,0,0,0,0,0,0
2.917253,4.98516,-10.551372,1.891618e-12,0,0,1.891618e-12,0,-2.220446e-16,-6.044486e-18,0,0,0,0,1.644209e-19,-2.22209e-16,1.111867e-16,43.441837,1.48249e-16,1.481942e-16,0,0,0,0,0,0
2.964544,4.98516,-10.528374,1.891618e-12,0,0,1.891618e-12,-1.110223e-16,-1.110223e-16,2.42873e-17,0,0,0,0,-8.6735e-17,-1.353096e-16,2.42873e-17,90,3.238307e-17,7.914985e-17,0,0,0,0,0,0
3.011834,4.98516,-10.500096,1.891618e-12,0,0,1.891618e-12,-1.110223e-16,-1.110223e-16,3.74482e-19,0,0,0,0,-1.106478e-16,-1.113968e-16,3.74482e-19,90,4.993094e-19,7.401613e-17,0,0,0,0,0,0
3.059125,4.98516,-10.467256,1.891618e-12,0,0,1.891618e-12,2.220446e-16,2.220446e-16,-4.186954e-17,0,0,0,0,2.639141e-16,1.801751e-16,4.186954e-17,0,5.582605e-17,1.557248e-16,0,0,0,0,0,0
3.106415,4.98516,-10.430679,1.891618e-12,0,0,1.891618e-12,-6.661338e-16,2.220446e-16,1.682777e-17,0,0,0,0,2.223633e-16,-6.664525e-16,4.444079e-16,-46.08503,5.925439e-16,5.340824e-16,0,0,0,0,0,0
3.153705,4.98516,-10.390312,1.891618e-12,0,0,1.891618e-12,0,0,1.493593e-18,0,0,0,0,1.493593e-18,-1.493593e-18,1.493593e-18,90,1.991457e-18,1.724652e-18,0,0,0,0,0,0
3.200996,4.98516,-10.34572,1.891618e-12,0,0,1.891618e-12,0,0,1.30012e-17,0,0,0,0,1.30012e-17,-1.30012e-17,1.30012e-17,90,1.733493e-17,1.501249e-17,0,0,0,0,0,0
3.248286,4.98516,-10.297559,1.891618e-12,0,0,1.891618e-12,0,2.220446e-16,-1.828389e-18,0,0,0,0,2.220597e-16,-1.505454e-20,1.110374e-16,-44.528252,1.480498e-16,1.480448e-16,0,0,0,0,0,0
3.295577,4.98516,-10.244566,1.891618e-12,0,0,1.891618e-12,2.220446e-16,-2.220446e-16,-1.975029e-17,0,0,0,0,2.229212e-16,-2.229212e-16,2.229212e-16,42.458534,2.972283e-16,2.574073e-16,0,0,0,0,0,0
3.342867,4.98516,-10.185391,1.891618e-12,0,0,1.891618e-12,2.220446e-16,2.220446e-16,-5.467052e-18,0,0,0,0,2.275116e-16,2.165775e-16,5.467052e-18,0,7.289403e-18,1.481643e-16,0,0,0,0,0,0
1.451249,4.937869,-9.879423,1.891618e-12,0,0,1.891618e-12,-3.330669e-16,0,2.438761e-16,0,0,0,0,1.287782e-16,-4.618451e-16,2.953116e-16,-72.836182,3.937488e-16,3.586148e-16,0,0,0,0,0,0
1.49854,4.937869,-9.964269,1.891618e-12,0,0,1.891618e-12,-2.220446e-16,2.220446e-16,7.748612e-17,0,0,0,0,2.351763e-16,-2.351763e-16,2.351763e-16,-54.618637,3.135684e-16,2.715582e-16,0,0,0,0,0,0
1.54583,4.937869,-10.053442,1.891618e-12,0,0,1.891618e-12,-1.110223e-16,-1.110223e-16,-5.402488e-17,0,0,0,0,-5.699742e-17,-1.650472e-16,5.402488e-17,0,7.203317e-17,9.679765e-17,0,0,0,0,0,0
1.593121,4.937869,-10.151148,1.891618e-12,0,0,1.891618e-12,-1.110223e-16,-1.110223e-16,-1.124213e-17,0,0,0,0,-9.978017e-17,-1.222644e-16,1.124213e-17,0,1.498951e-17,7.514463e-17,0,0,0,0,0,0
1.640411,4.937869,-10.220875,1.891618e-12,0,0,1.891618e-12,0,2.220446e-16,-2.671511e-17,0,0,0,0,2.252136e-16,-3.16898e-18,1.141913e-16,-38.235115,1.52255e-16,1.512098e-16,0,0,0,0,0,0
1.687701,4.937869,-10.279539,1.891618e-12,0,0,1.891618e-12,0,-1.110223e-16,1.832876e-17,0,0,0,0,2.947649e-18,-1.1397e-16,5.84588e-17,54.136135,7.794507e-17,7.698133e-17,0,0,0,0,0,0
1.734992,4.937869,-10.33255,1.891618e-12,0,0,1.891618e-12,0,2.220446e-16,2.621445e-18,0,0,0,0,2.220755e-16,-3.09443e-20,1.110532e-16,-45.676304,1.48071e-16,1.480607e-16,0,0,0,0,0,0
1.782282,4.937869,-10.37824,1.891618e-12,0,0,1.891618e-12,-2.220446e-16,-4.440892e-16,1.497015e-17,0,0,0,0,-2.210399e-16,-4.450939e-16,1.12027e-16,48.839695,1.493694e-16,2.569771e-16,0,0,0,0,0,0
1.829573,4.937869,-10.416408,1.891618e-12,0,0,1.891618e-12,0,2.220446e-16,4.949554e-17,0,0,0,0,2.325779e-16,-1.053328e-17,1.215556e-16,-57.014046,1.620741e-16,1.586796e-16,0,0,0,0,0,0
1.876863,4.937869,-10.448922,1.891618e-12,0,0,1.891618e-12,0,0,2.797555e-18,0,0,0,0,2.797555e-18,-2.797555e-18,2.797555e-18,90,3.730073e-18,3.230338e-18,0,0,0,0,0,0
1.924154,4.937869,-10.477988,1.891618e-12,0,0,1.891618e-12,2.220446e-16,2.220446e-16,3.189719e-17,0,0,0,0,2.539418e-16,1.901474e-16,3.189719e-17,90,4.252959e-17,1.52543e-16,0,0,0,0,0,0
1.971444,4.937869,-10.504598,1.891618e-12,0,0,1.891618e-12,0,0,-1.372739e-17,0,0,0,0,1.372739e-17,-1.372739e-17,1.372739e-17,0,1.830319e-17,1.585103e-17,0,0,0,0,0,0
2.018735,4.937869,-10.529214,1.891618e-12,0,0,1.891618e-12,-1.110223e-16,-1.110223e-16,5.278292e-18,0,0,0,0,-1.05744e-16,-1.163006e-16,5.278292e-18,90,7.037722e-18,7.426539e-17,0,0,0,0,0,0
2.066025,4.937869,-10.552685,1.891618e-12,0,0,1.891618e-12,2.220446e-16,0,3.40427e-17,0,0,0,0,2.271466e-16,-5.102016e-18,1.161243e-16,53.52354,1.548324e-16,1.531601e-16,0,0,0,0,0,0
2.113316,4.937869,-10.575518,1.891618e-12,0,0,1.891618e-12,-1.110223e-16,0,-2.323314e-17,0,0,0,0,4.66581e-18,-1.156881e-16,6.017696e-17,-33.644588,8.023595e-17,7.872678e-17,0,0,0,0,0,0
2.160606,4.937869,-10.595308,1.891618e-12,0,0,1.891618e-12,0,2.220446e-16,-1.042224e-17,0,0,0,0,2.225327e-16,-4.881215e-19,1.115104e-16,-42.318535,1.486806e-16,1.485181e-16,0,0,0,0,0,0
2.207896,4.937869,-10.608791,1.891618e-12,0,0,1.891618e-12,2.220446e-16,-2.220446e-16,-2.148949e-17,0,0,0,0,2.230821e-16,-2.230821e-16,2.230821e-16,42.236065,2.974427e-16,2.57593e-16,0,0,0,0,0,0
2.255187,4.937869,-10.615399,1.891618e-12,0,0,1.891618e-12,2.220446e-16,2.220446e-16,3.669983e-17,0,0,0,0,2.587444e-16,1.853448e-16,3.669983e-17,90,4.89331e-17,1.539761e-16,0,0,0,0,0,0
2.302477,4.937869,-10.618915,1.891618e-12,0,0,1.891618e-12,4.440892e-16,2.220446e-16,1.856847e-17,0,0,0,0,4.456313e-16,2.205025e-16,1.125644e-16,49.747417,1.500858e-16,2.5729e-16,0,0,0,0,0,0
2.349768,4.937869,-10.623807,1.891618e-12,0,0,1.891618e-12,2.220446e-16,2.220446e-16,4.463184e-17,0,0,0,0,2.666764e-16,1.774128e-16,4.463184e-17,90,5.950913e-17,1.567444e-16,0,0,0,0,0,0
2.397058,4.937869,-10.631273,1.891618e-12,0,0,1.891618e-12,-4.440892e-16,0,3.0831e-17,0,0,0,0,2.130231e-18,-4.462194e-16,2.241748e-16,-48.952503,2.988998e-16,2.981922e-16,0,0,0,0,0,0
2.444349,4.937869,-10.638293,1.891618e-12,0,0,1.891618e-12,-1.110223e-16,0,4.930831e-17,0,0,0,0,1.873706e-17,-1.297594e-16,7.424821e-17,-65.806694,9.899762e-17,9.338065e-17,0,0,0,0,0,0
2.491639,4.937869,-10.642058,1.891618e-12,0,0,1.891618e-12,-4.440892e-16,-1.110223e-16,-1.827411e-17,0,0,0,0,-1.100227e-16,-4.450888e-16,1.675331e-16,-41.868927,2.233774e-16,2.676974e-16,0,0,0,0,0,0
2.53893,4.937869,-10.641842,1.891618e-12,0,0,1.891618e-12,0,-2.220446e-16,-5.696456e-18,0,0,0,0,1.46044e-19,-2.221906e-16,1.111683e-16,43.531391,1.482245e-16,1.481758e-16,0,0,0,0,0,0
2.58622,4.937869,-10.638993,1.891618e-12,0,0,1.891618e-12,0,2.220446e-16,-1.743405e-18,0,0,0,0,2.220583e-16,-1.368768e-20,1.11036e-16,-44.550175,1.48048e-16,1.480434e-16,0,0,0,0,0,0
2.633511,4.937869,-10.633865,1.891618e-12,0,0,1.891618e-12,0,-1.110223e-16,-1.414021e-17,0,0,0,0,1.772647e-18,-1.127949e-16,5.72838e-17,37.854557,7.63784e-17,7.579443e-17,0,0,0,0,0,0
2.680801,4.937869,-10.625906,1.891618e-12,0,0,1.891618e-12,2.220446e-16,0,-1.293701e-17,0,0,0,0,2.227958e-16,-7.51209e-19,1.117735e-16,41.676758,1.490313e-16,1.487816e-16,0,0,0,0,0,0
2.728091,4.937869,-10.61518,1.891618e-12,0,0,1.891618e-12,2.220446e-16,-1.110223e-16,-4.038553e-17,0,0,0,0,2.268715e-16,-1.158492e-16,1.713604e-16,38.184261,2.284805e-16,2.013009e-16,0,0,0,0,0,0
2.775382,4.937869,-10.602182,1.891618e-12,0,0,1.891618e-12,2.220446e-16,2.220446e-16,-1.164774e-17,0,0,0,0,2.336923e-16,2.103969e-16,1.164774e-17,0,1.553032e-17,1.486395e-16,0,0,0,0,0,0
2.822672,4.937869,-10.587617,1.891618e-12,0,0,1.891618e-12,2.220446e-16,2.220446e-16,-2.079667e-17,0,0,0,0,2.428413e-16,2.012479e-16,2.079667e-17,0,2.77289e-17,1.499649e-16,0,0,0,0,0,0
2.869963,4.937869,-10.571664,1.891618e-12,0,0,1.891618e-12,2.220446e-16,-1.110223e-16,-2.204503e-17,0,0,0,0,2.234974e-16,-1.124751e-16,1.679862e-16,41.22963,2.239816e-16,1.974725e-16,0,0,0,0,0,0
2.917253,4.937869,-10.553507,1.891618e-12,0,0,1.891618e-12,-2.220446e-16,-4.440892e-16,3.761595e-17,0,0,0,0,-2.158453e-16,-4.502885e-16,1.172216e-16,54.358559,1.562955e-16,2.600481e-16,0,0,0,0,0,0
2.964544,4.937869,-10.531421,1.891618e-12,0,0,1.891618e-12,2.220446e-16,2.220446e-16,9.038897e-18,0,0,0,0,2.310835e-16,2.130057e-16,9.038897e-18,90,1.205186e-17,1.483972e-16,0,0,0,0,0,0
3.011834,4.937869,-10.503646,1.891618e-12,0,0,1.891618e-12,2.220446e-16,2.220446e-16,-2.395052e-17,0,0,0,0,2.459951e-16,1.980941e-16,2.395052e-17,0,3.193403e-17,1.50591e-16,0,0,0,0,0,0
3.059125,4.937869,-10.470095,1.891618e-12,0,0,1.891618e-12,0,2.220446e-16,-1.56066e-17,0,0,0,0,2.231362e-16,-1.091558e-18,1.121139e-16,-40.99913,1.494851e-16,1.491226e-16,0,0,0,0,0,0
3.106415,4.937869,-10.431726,1.891618e-12,0,0,1.891618e-12,0,0,-2.162756e-17,0,0,0,0,2.162756e-17,-2.162756e-17,2.162756e-17,0,2.883675e-17,2.497336e-17,0,0,0,0,0,0
3.153705,4.937869,-10.389347,1.891618e-12,0,0,1.891618e-12,4.440892e-16,0,4.424286e-18,0,0,0,0,4.441333e-16,-4.407305e-20,2.220887e-16,45.57074,2.961182e-16,2.961036e-16,0,0,0,0,0,0
3.200996,4.937869,-10.343341,1.891618e-12,0,0,1.891618e-12,2.220446e-16,-2.220446e-16,2.987174e-17,0,0,0,0,2.240449e-16,-2.240449e-16,2.240449e-16,48.831009,2.987266e-16,2.587048e-16,0,0,0,0,0,0
3.248286,4.937869,-10.294856,1.891618e-12,0,0,1.891618e-12,2.220446e-16,2.220446e-16,4.622522e-17,0,0,0,0,2.682698e-16,1.758194e-16,4.622522e-17,90,6.163364e-17,1.573589e-16,0,0,0,0,0,0
3.295577,4.937869,-10.243435,1.891618e-12,0,0,1.891618e-12,0,2.220446e-16,1.636744e-17,0,0,0,0,2.232446e-16,-1.199999e-18,1.122223e-16,-49.193207,1.496297e-16,1.492313e-16,0,0,0,0,0,0
3.342867,4.937869,-10.187968,1.891618e-12,0,0,1.891618e-12,-1.110223e-16,2.220446e-16,3.162209e-17,0,0,0,0,2.250203e-16,-1.13998e-16,1.695091e-16,-50.375786,2.260122e-16,1.992001e-16,0,0,0,0,0,0
1.451249,4.890579,-9.85547,1.891618e-12,0,0,1.891618e-12,-3.330669e-16,-2.220446e-16,-8.979951e-18,0,0,0,0,-2.21323e-16,-3.337886e-16,5.62328e-17,-40.405479,7.497706e-17,1.960993e-16,0,0,0,0,0,0
1.49854,4.890579,-9.966569,1.891618e-12,0,0,1.891618e-12,2.220446e-16,4.440892e-16,-1.57027e-17,0,0,0,0,4.451942e-16,2.209396e-16,1.121273e-16,-40.974819,1.49503e-16,2.570354e-16,0,0,0,0,0,0
1.54583,4.890579,-10.05527,1.891618e-12,0,0,1.891618e-12,2.220446e-16,-1.110223e-16,-6.026387e-18,0,0,0,0,2.221536e-16,-1.111313e-16,1.666425e-16,43.963764,2.2219e-16,1.959485e-16,0,0,0,0,0,0
1.593121,4.890579,-10.153412,1.891618e-12,0,0,1.891618e-12,2.220446e-16,2.220446e-16,-7.135689e-17,0,0,0,0,2.934015e-16,1.506877e-16,7.135689e-17,0,9.514253e-17,1.694163e-16,0,0,0,0,0,0
1.640411,4.890579,-10.2233,1.891618e-12,0,0,1.891618e-12,-3.330669e-16,-1.110223e-16,-3.962754e-17,0,0,0,0,-1.041621e-16,-3.399272e-16,1.178825e-16,-35.178417,1.571767e-16,2.011e-16,0,0,0,0,0,0
1.687701,4.890579,-10.281474,1.891618e-12,0,0,1.891618e-12,-2.220446e-16,2.220446e-16,-7.438195e-18,0,0,0,0,2.221691e-16,-2.221691e-16,2.221691e-16,-44.040691,2.962255e-16,2.565388e-16,0,0,0,0,0,0
1.734992,4.890579,-10.334258,1.891618e-12,0,0,1.891618e-12,-3.330669e-16,2.220446e-16,-7.495876e-18,0,0,0,0,2.221458e-16,-3.331681e-16,2.77657e-16,-44.226501,3.702093e-16,3.227394e-16,0,0,0,0,0,0
1.782282,4.890579,-10.379455,1.891618e-12,0,0,1.891618e-12,2.220446e-16,2.220446e-16,4.913008e-17,0,0,0,0,2.711747e-16,1.729145e-16,4.913008e-17,90,6.550677e-17,1.585281e-16,0,0,0,0,0,0
1.829573,4.890579,-10.417335,1.891618e-12,0,0,1.891618e-12,2.220446e-16,2.220446e-16,4.375989e-17,0,0,0,0,2.658045e-16,1.782847e-16,4.375989e-17,90,5.834652e-17,1.564162e-16,0,0,0,0,0,0
1.876863,4.890579,-10.450218,1.891618e-12,0,0,1.891618e-12,-4.440892e-16,2.220446e-16,-3.23542e-17,0,0,0,0,2.236124e-16,-4.45657e-16,3.346347e-16,-42.225842,4.461795e-16,3.934277e-16,0,0,0,0,0,0
1.924154,4.890579,-10.480001,1.891618e-12,0,0,1.891618e-12,0,-1.110223e-16,1.354255e-17,0,0,0,0,1.628052e-18,-1.126504e-16,5.71392e-17,51.855061,7.61856e-17,7.564876e-17,0,0,0,0,0,0
1.971444,4.890579,-10.506915,1.891618e-12,0,0,1.891618e-12,-1.110223e-16,2.220446e-16,-5.717933e-18,0,0,0,0,2.221427e-16,-1.111204e-16,1.666316e-16,-44.016758,2.221754e-16,1.959362e-16,0,0,0,0,0,0
2.018735,4.890579,-10.530948,1.891618e-12,0,0,1.891618e-12,0,-1.110223e-16,5.942698e-18,0,0,0,0,3.17189e-19,-1.113395e-16,5.582834e-17,48.055241,7.443778e-17,7.433228e-17,0,0,0,0,0,0
2.066025,4.890579,-10.553217,1.891618e-12,0,0,1.891618e-12,0,0,-2.38624e-17,0,0,0,0,2.38624e-17,-2.38624e-17,2.38624e-17,0,3.181653e-17,2.755392e-17,0,0,0,0,0,0
2.113316,4.890579,-10.574752,1.891618e-12,0,0,1.891618e-12,-1.110223e-16,2.220446e-16,2.042455e-17,0,0,0,0,2.232924e-16,-1.122701e-16,1.677813e-16,-48.496071,2.237084e-16,1.9724e-16,0,0,0,0,0,0
2.160606,4.890579,-10.59368,1.891618e-12,0,0,1.891618e-12,0,2.220446e-16,-1.237146e-17,0,0,0,0,2.227318e-16,-6.871632e-19,1.117095e-16,-41.820816,1.48946e-16,1.487174e-16,0,0,0,0,0,0
2.207896,4.890579,-10.606625,1.891618e-12,0,0,1.891618e-12,-1.110223e-16,0,-4.663042e-18,0,0,0,0,1.955079e-19,-1.112178e-16,5.570666e-17,-42.599159,7.427554e-17,7.421046e-17,0,0,0,0,0,0
2.255187,4.890579,-10.612424,1.891618e-12,0,0,1.891618e-12,-1.110223e-16,2.220446e-16,9.380524e-18,0,0,0,0,2.223086e-16,-1.112863e-16,1.667974e-16,-46.61198,2.223966e-16,1.961243e-16,0,0,0,0,0,0
2.302477,4.890579,-10.615181,1.891618e-12,0,0,1.891618e-12,2.220446e-16,-1.110223e-16,-1.892681e-18,0,0,0,0,2.220554e-16,-1.110331e-16,1.665442e-16,44.674427,2.22059e-16,1.958371e-16,0,0,0,0,0,0
2.349768,4.890579,-10.61983,1.891618e-12,0,0,1.891618e-12,0,2.220446e-16,-1.001698e-17,0,0,0,0,2.224956e-16,-4.509744e-19,1.114733e-16,-42.422226,1.48631e-16,1.484809e-16,0,0,0,0,0,0
2.397058,4.890579,-10.628009,1.891618e-12,0,0,1.891618e-12,0,2.220446e-16,-8.534032e-18,0,0,0,0,2.223721e-16,-3.275128e-19,1.113498e-16,-42.802223,1.484664e-16,1.483574e-16,0,0,0,0,0,0
2.444349,4.890579,-10.636994,1.891618e-12,0,0,1.891618e-12,2.220446e-16,2.220446e-16,-3.670992e-17,0,0,0,0,2.587545e-16,1.853347e-16,3.670992e-17,0,4.894656e-17,1.539793e-16,0,0,0,0,0,0
2.491639,4.890579,-10.643135,1.891618e-12,0,0,1.891618e-12,-1.110223e-16,0,2.125195e-17,0,0,0,0,3.929014e-18,-1.149513e-16,5.944017e-17,-55.474449,7.925355e-17,7.797689e-17,0,0,0,0,0,0
2.53893,4.890579,-10.645171,1.891618e-12,0,0,1.891618e-12,4.440892e-16,2.220446e-16,1.748667e-17,0,0,0,0,4.454579e-16,2.206759e-16,1.12391e-16,49.475445,1.498547e-16,2.571889e-16,0,0,0,0,0,0
2.58622,4.890579,-10.643956,1.891618e-12,0,0,1.891618e-12,2.220446e-16,0,-3.697277e-17,0,0,0,0,2.280391e-16,-5.994524e-18,1.170168e-16,35.790577,1.560224e-16,1.540631e-16,0,0,0,0,0,0
2.633511,4.890579,-10.639469,1.891618e-12,0,0,1.891618e-12,2.220446e-16,2.220446e-16,1.923389e-17,0,0,0,0,2.412785e-16,2.028107e-16,1.923389e-17,90,2.564519e-17,1.496865e-16,0,0,0,0,0,0
2.680801,4.890579,-10.631005,1.891618e-12,0,0,1.891618e-12,-1.110223e-16,-2.220446e-16,-1.667641e-17,0,0,0,0,-1.085715e-16,-2.244954e-16,5.796197e-17,36.639458,7.728263e-17,1.296357e-16,0,0,0,0,0,0
2.728091,4.890579,-10.619116,1.891618e-12,0,0,1.891618e-12,0,2.220446e-16,-3.493816e-17,0,0,0,0,2.274123e-16,-5.367673e-18,1.1639e-16,-36.265736,1.551866e-16,1.534287e-16,0,0,0,0,0,0
2.775382,4.890579,-10.604908,1.891618e-12,0,0,1.891618e-12,-2.220446e-16,0,1.691407e-17,0,0,0,0,1.281026e-18,-2.233256e-16,1.123033e-16,-49.331158,1.497378e-16,1.493126e-16,0,0,0,0,0,0
2.822672,4.890579,-10.589568,1.891618e-12,0,0,1.891618e-12,-1.110223e-16,-1.110223e-16,2.604221e-17,0,0,0,0,-8.498009e-17,-1.370645e-16,2.604221e-17,90,3.472295e-17,7.989032e-17,0,0,0,0,0,0
2.869963,4.890579,-10.573492,1.891618e-12,0,0,1.891618e-12,2.220446e-16,-1.110223e-16,-5.2663e-18,0,0,0,0,2.221279e-16,-1.111055e-16,1.666167e-16,44.094368,2.221556e-16,1.959193e-16,0,0,0,0,0,0
2.917253,4.890579,-10.555958,1.891618e-12,0,0,1.891618e-12,2.220446e-16,0,1.334191e-17,0,0,0,0,2.228434e-16,-7.987962e-19,1.118211e-16,48.426277,1.490948e-16,1.488292e-16,0,0,0,0,0,0
2.964544,4.890579,-10.534865,1.891618e-12,0,0,1.891618e-12,2.220446e-16,2.220446e-16,-3.836405e-18,0,0,0,0,2.25881e-16,2.182082e-16,3.836405e-18,0,5.115206e-18,1.48096e-16,0,0,0,0,0,0
3.011834,4.890579,-10.508199,1.891618e-12,0,0,1.891618e-12,2.220446e-16,-2.220446e-16,2.316601e-18,0,0,0,0,2.220567e-16,-2.220567e-16,2.220567e-16,45.298874,2.960756e-16,2.56409e-16,0,0,0,0,0,0
3.059125,4.890579,-10.475025,1.891618e-12,0,0,1.891618e-12,2.220446e-16,2.220446e-16,3.639539e-17,0,0,0,0,2.5844e-16,1.856492e-16,3.639539e-17,90,4.852719e-17,1.538797e-16,0,0,0,0,0,0
3.106415,4.890579,-10.436138,1.891618e-12,0,0,1.891618e-12,2.220446e-16,-1.110223e-16,4.007119e-18,0,0,0,0,2.220928e-16,-1.110705e-16,1.665817e-16,45.68919,2.221089e-16,1.958796e-16,0,0,0,0,0,0
3.153705,4.890579,-10.392731,1.891618e-12,0,0,1.891618e-12,2.220446e-16,-1.110223e-16,2.987197e-17,0,0,0,0,2.247025e-16,-1.136802e-16,1.691914e-16,50.084648,2.255885e-16,1.988396e-16,0,0,0,0,0,0
3.200996,4.890579,-10.346281,1.891618e-12,0,0,1.891618e-12,2.220446e-16,2.220446e-16,-2.97542e-19,0,0,0,0,2.223422e-16,2.217471e-16,2.97542e-19,0,3.967227e-19,1.480301e-16,0,0,0,0,0,0
3.248286,4.890579,-10.297572,1.891618e-12,0,0,1.891618e-12,0,2.220446e-16,-1.755346e-17,0,0,0,0,2.234237e-16,-1.379101e-18,1.124014e-16,-40.50774,1.498685e-16,1.49411e-16,0,0,0,0,0,0
3.295577,4.890579,-10.247163,1.891618e-12,0,0,1.891618e-12,4.440892e-16,-1.110223e-16,-1.403834e-17,0,0,0,0,4.44444e-16,-1.113771e-16,2.779106e-16,43.552269,3.705474e-16,3.395659e-16,0,0,0,0,0,0
3.342867,4.890579,-10.194774,1.891618e-12,0,0,1.891618e-12,-2.220446e-16,2.220446e-16,1.976305e-17,0,0,0,0,2.229224e-16,-2.229224e-16,2.229224e-16,-47.543102,2.972298e-16,2.574086e-16,0,0,0,0,0,0
1.49854,4.843288,-9.962387,1.891618e-12,0,0,1.891618e-12,2.220446e-16,-1.110223e-16,5.040234e-17,0,0,0,0,2.295048e-16,-1.184825e-16,1.739936e-16,53.419376,2.319915e-16,2.042905e-16,0,0,0,0,0,0
1.54583,4.843288,-10.05703,1.891618e-12,0,0,1.891618e-12,2.220446e-16,2.220446e-16,-5.587411e-17,0,0,0,0,2.779187e-16,1.661705e-16,5.587411e-17,0,7.449882e-17,1.614787e-16,0,0,0,0,0,0
1.593121,4.843288,-10.155154,1.891618e-12,0,0,1.891618e-12,2.220446e-16,0,8.073516e-18,0,0,0,0,2.223378e-16,-2.931651e-19,1.113155e-16,47.079609,1.484206e-16,1.48323e-16,0,0,0,0,0,0
1.640411,4.843288,-10.224275,1.891618e-12,0,0,1.891618e-12,0,-1.110223e-16,2.705165e-17,0,0,0,0,6.24061e-18,-1.172629e-16,6.175176e-17,57.990433,8.233568e-17,8.033632e-17,0,0,0,0,0,0
1.687701,4.843288,-10.28196,1.891618e-12,0,0,1.891618e-12,0,2.220446e-16,5.464996e-17,0,0,0,0,2.347663e-16,-1.272167e-17,1.23744e-16,-58.104198,1.64992e-16,1.609191e-16,0,0,0,0,0,0
1.734992,4.843288,-10.334362,1.891618e-12,0,0,1.891618e-12,-3.330669e-16,-1.110223e-16,-2.109106e-17,0,0,0,0,-1.090367e-16,-3.350525e-16,1.130079e-16,-39.621807,1.506772e-16,1.973335e-16,0,0,0,0,0,0
1.782282,4.843288,-10.379315,1.891618e-12,0,0,1.891618e-12,-2.220446e-16,2.220446e-16,-7.205222e-18,0,0,0,0,2.221615e-16,-2.221615e-16,2.221615e-16,-44.070717,2.962153e-16,2.5653e-16,0,0,0,0,0,0
1.829573,4.843288,-10.4177,1.891618e-12,0,0,1.891618e-12,0,2.220446e-16,-1.381783e-17,0,0,0,0,2.229012e-16,-8.565789e-19,1.118789e-16,-41.452724,1.491718e-16,1.488871e-16,0,0,0,0,0,0
1.876863,4.843288,-10.451561,1.891618e-12,0,0,1.891618e-12,2.220446e-16,-2.220446e-16,-3.487102e-18,0,0,0,0,2.22072e-16,-2.22072e-16,2.22072e-16,44.550137,2.96096e-16,2.564267e-16,0,0,0,0,0,0
1.924154,4.843288,-10.482237,1.891618e-12,0,0,1.891618e-12,2.220446e-16,0,1.419494e-17,0,0,0,0,2.229484e-16,-9.037797e-19,1.119261e-16,48.643055,1.492348e-16,1.489344e-16,0,0,0,0,0,0
1.971444,4.843288,-10.509385,1.891618e-12,0,0,1.891618e-12,2.220446e-16,0,1.490432e-17,0,0,0,0,2.230406e-16,-9.959568e-19,1.120183e-16,48.823013,1.493577e-16,1.490268e-16,0,0,0,0,0,0
2.018735,4.843288,-10.53285,1.891618e-12,0,0,1.891618e-12,2.220446e-16,4.440892e-16,2.874773e-17,0,0,0,0,4.477508e-16,2.183831e-16,1.146838e-16,-52.258564,1.529118e-16,2.585349e-16,0,0,0,0,0,0
2.066025,4.843288,-10.554266,1.891618e-12,0,0,1.891618e-12,-4.440892e-16,-1.110223e-16,1.549906e-17,0,0,0,0,-1.103026e-16,-4.448089e-16,1.672531e-16,-47.658566,2.230042e-16,2.674638e-16,0,0,0,0,0,0
2.113316,4.843288,-10.574963,1.891618e-12,0,0,1.891618e-12,2.220446e-16,-2.220446e-16,-2.972269e-17,0,0,0,0,2.240251e-16,-2.240251e-16,2.240251e-16,41.187881,2.987001e-16,2.586819e-16,0,0,0,0,0,0
2.160606,4.843288,-10.593527,1.891618e-12,0,0,1.891618e-12,-3.330669e-16,2.220446e-16,1.361945e-17,0,0,0,0,2.223785e-16,-3.334009e-16,2.778897e-16,-46.404602,3.705196e-16,3.230064e-16,0,0,0,0,0,0
2.207896,4.843288,-10.606622,1.891618e-12,0,0,1.891618e-12,2.220446e-16,4.440892e-16,-2.200725e-18,0,0,0,0,4.44111e-16,2.220228e-16,1.110441e-16,-44.432205,1.480588e-16,2.564076e-16,0,0,0,0,0,0
2.255187,4.843288,-10.612654,1.891618e-12,0,0,1.891618e-12,-2.220446e-16,2.220446e-16,-1.85647e-17,0,0,0,0,2.228193e-16,-2.228193e-16,2.228193e-16,-42.610367,2.970924e-16,2.572896e-16,0,0,0,0,0,0
2.302477,4.843288,-10.615216,1.891618e-12,0,0,1.891618e-12,-2.220446e-16,2.220446e-16,2.775858e-17,0,0,0,0,2.23773e-16,-2.23773e-16,2.23773e-16,-48.562889,2.98364e-16,2.583908e-16,0,0,0,0,0,0
2.349768,4.843288,-10.619466,1.891618e-12,0,0,1.891618e-12,-1.110223e-16,-2.220446e-16,3.088862e-18,0,0,0,0,-1.109364e-16,-2.221305e-16,5.559703e-17,46.592442,7.412937e-17,1.282471e-16,0,0,0,0,0,0
2.397058,4.843288,-10.627478,1.891618e-12,0,0,1.891618e-12,0,0,-5.188223e-18,0,0,0,0,5.188223e-18,-5.188223e-18,5.188223e-18,0,6.917631e-18,5.990844e-18,0,0,0,0,0,0
2.444349,4.843288,-10.636916,1.891618e-12,0,0,1.891618e-12,2.220446e-16,-1.110223e-16,-3.240299e-17,0,0,0,0,2.251677e-16,-1.141454e-16,1.696565e-16,39.494667,2.262087e-16,1.993674e-16,0,0,0,0,0,0
2.491639,4.843288,-10.644116,1.891618e-12,0,0,1.891618e-12,-1.110223e-16,2.220446e-16,-3.298727e-17,0,0,0,0,2.252803e-16,-1.14258e-16,1.697691e-16,-39.397888,2.263588e-16,1.994951e-16,0,0,0,0,0,0
2.53893,4.843288,-10.647363,1.891618e-12,0,0,1.891618e-12,-2.220446e-16,2.220446e-16,-5.086717e-18,0,0,0,0,2.221029e-16,-2.221029e-16,2.221029e-16,-44.343834,2.961371e-16,2.564623e-16,0,0,0,0,0,0
2.58622,4.843288,-10.647101,1.891618e-12,0,0,1.891618e-12,0,-1.110223e-16,-1.866265e-18,0,0,0,0,3.136271e-20,-1.110537e-16,5.554251e-17,44.037231,7.405669e-17,7.404623e-17,0,0,0,0,0,0
2.633511,4.843288,-10.643393,1.891618e-12,0,0,1.891618e-12,2.220446e-16,-1.110223e-16,-4.840694e-18,0,0,0,0,2.221149e-16,-1.110926e-16,1.666038e-16,44.167515,2.221384e-16,1.959047e-16,0,0,0,0,0,0
2.680801,4.843288,-10.635344,1.891618e-12,0,0,1.891618e-12,2.220446e-16,0,6.745115e-19,0,0,0,0,2.220466e-16,-2.048964e-21,1.110244e-16,45.174046,1.480325e-16,1.480318e-16,0,0,0,0,0,0
2.728091,4.843288,-10.62324,1.891618e-12,0,0,1.891618e-12,0,2.220446e-16,-3.947453e-17,0,0,0,0,2.288535e-16,-6.808893e-18,1.178312e-16,-35.213451,1.571083e-16,1.548885e-16,0,0,0,0,0,0
2.775382,4.843288,-10.608398,1.891618e-12,0,0,1.891618e-12,2.220446e-16,-1.110223e-16,-2.983183e-17,0,0,0,0,2.246954e-16,-1.136732e-16,1.691843e-16,39.922043,2.255791e-16,1.988316e-16,0,0,0,0,0,0
2.822672,4.843288,-10.592165,1.891618e-12,0,0,1.891618e-12,0,-1.110223e-16,6.134213e-17,0,0,0,0,2.721941e-17,-1.382417e-16,8.273055e-17,68.928345,1.103074e-16,1.024468e-16,0,0,0,0,0,0
2.869963,4.843288,-10.57547,1.891618e-12,0,0,1.891618e-12,0,-1.110223e-16,2.617685e-17,0,0,0,0,5.862423e-18,-1.168847e-16,6.137357e-17,57.623352,8.183143e-17,7.994897e-17,0,0,0,0,0,0
2.917253,4.843288,-10.558054,1.891618e-12,0,0,1.891618e-12,0,2.220446e-16,1.983474e-17,0,0,0,0,2.238025e-16,-1.757876e-18,1.127802e-16,-50.064671,1.503736e-16,1.497911e-16,0,0,0,0,0,0
2.964544,4.843288,-10.537733,1.891618e-12,0,0,1.891618e-12,2.220446e-16,2.220446e-16,3.384698e-18,0,0,0,0,2.254293e-16,2.186599e-16,3.384698e-18,90,4.51293e-18,1.480813e-16,0,0,0,0,0,0
3.011834,4.843288,-10.512426,1.891618e-12,0,0,1.891618e-12,0,2.220446e-16,-2.222184e-17,0,0,0,0,2.242467e-16,-2.202085e-18,1.132244e-16,-39.340721,1.509658e-16,1.502372e-16,0,0,0,0,0,0
3.059125,4.843288,-10.480491,1.891618e-12,0,0,1.891618e-12,0,0,1.427076e-17,0,0,0,0,1.427076e-17,-1.427076e-17,1.427076e-17,90,1.902769e-17,1.647846e-17,0,0,0,0,0,0
3.106415,4.843288,-10.442165,1.891618e-12,0,0,1.891618e-12,0,2.220446e-16,-1.7398e-17,0,0,0,0,2.233995e-16,-1.354928e-18,1.123772e-16,-40.546886,1.498363e-16,1.493867e-16,0,0,0,0,0,0
3.153705,4.843288,-10.3988,1.891618e-12,0,0,1.891618e-12,0,-2.220446e-16,-6.753953e-17,0,0,0,0,1.892977e-17,-2.409744e-16,1.299521e-16,29.343046,1.732694e-16,1.673168e-16,0,0,0,0,0,0
3.200996,4.843288,-10.352441,1.891618e-12,0,0,1.891618e-12,0,-1.110223e-16,-2.292001e-17,0,0,0,0,4.54561e-18,-1.155679e-16,6.005676e-17,33.782375,8.007568e-17,7.86043e-17,0,0,0,0,0,0
3.248286,4.843288,-10.303632,1.891618e-12,0,0,1.891618e-12,0,-1.110223e-16,2.576044e-17,0,0,0,0,5.685973e-18,-1.167083e-16,6.119712e-17,57.447033,8.159617e-17,7.976842e-17,0,0,0,0,0,0
3.295577,4.843288,-10.253634,1.891618e-12,0,0,1.891618e-12,2.220446e-16,-1.110223e-16,-5.201846e-17,0,0,0,0,2.299798e-16,-1.189575e-16,1.744687e-16,36.32663,2.326249e-16,2.048299e-16,0,0,0,0,0,0
3.342867,4.843288,-10.202826,1.891618e-12,0,0,1.891618e-12,-3.330669e-16,-1.110223e-16,3.846849e-17,0,0,0,0,-1.045466e-16,-3.395426e-16,1.17498e-16,-54.555431,1.56664e-16,2.007997e-16,0,0,0,0,0,0
1.49854,4.795998,-9.96119,1.891618e-12,0,0,1.891618e-12,-1.110223e-16,0,-2.664302e-17,0,0,0,0,6.062696e-18,-1.17085e-16,6.157385e-17,-32.180473,8.209846e-17,8.015403e-17,0,0,0,0,0,0
1.54583,4.795998,-10.058969,1.891618e-12,0,0,1.891618e-12,0,-1.110223e-16,-3.113252e-17,0,0,0,0,8.134129e-18,-1.191564e-16,6.364528e-17,30.357414,8.486037e-17,8.228312e-17,0,0,0,0,0,0
1.593121,4.795998,-10.155717,1.891618e-12,0,0,1.891618e-12,-1.110223e-16,2.220446e-16,3.294262e-17,0,0,0,0,2.252716e-16,-1.142493e-16,1.697604e-16,-50.594719,2.263473e-16,1.994852e-16,0,0,0,0,0,0
1.640411,4.795998,-10.223615,1.891618e-12,0,0,1.891618e-12,0,0,1.949269e-17,0,0,0,0,1.949269e-17,-1.949269e-17,1.949269e-17,90,2.599026e-17,2.250822e-17,0,0,0,0,0,0
1.687701,4.795998,-10.281617,1.891618e-12,0,0,1.891618e-12,-2.220446e-16,2.220446e-16,4.401806e-18,0,0,0,0,2.220882e-16,-2.220882e-16,2.220882e-16,-45.567841,2.961176e-16,2.564454e-16,0,0,0,0,0,0
1.734992,4.795998,-10.333754,1.891618e-12,0,0,1.891618e-12,-2.220446e-16,-4.440892e-16,-1.056744e-17,0,0,0,0,-2.215428e-16,-4.44591e-16,1.115241e-16,42.281399,1.486988e-16,2.566852e-16,0,0,0,0,0,0
1.782282,4.795998,-10.378787,1.891618e-12,0,0,1.891618e-12,-4.440892e-16,2.220446e-16,2.946956e-17,0,0,0,0,2.233458e-16,-4.453904e-16,3.343681e-16,-47.528164,4.458241e-16,3.931254e-16,0,0,0,0,0,0
1.829573,4.795998,-10.417917,1.891618e-12,0,0,1.891618e-12,2.220446e-16,2.220446e-16,-4.632101e-17,0,0,0,0,2.683656e-16,1.757236e-16,4.632101e-17,0,6.176134e-17,1.573965e-16,0,0,0,0,0,0
1.876863,4.795998,-10.45286,1.891618e-12,0,0,1.891618e-12,-2.220446e-16,-1.110223e-16,-8.708946e-18,0,0,0,0,-1.103433e-16,-2.227236e-16,5.619015e-17,-40.541874,7.492021e-17,1.285913e-16,0,0,0,0,0,0
1.924154,4.795998,-10.484486,1.891618e-12,0,0,1.891618e-12,2.220446e-16,0,8.764616e-18,0,0,0,0,2.2239e-16,-3.454223e-19,1.113677e-16,47.256916,1.484903e-16,1.483753e-16,0,0,0,0,0,0
1.971444,4.795998,-10.511897,1.891618e-12,0,0,1.891618e-12,4.440892e-16,0,-4.451442e-17,0,0,0,0,4.485073e-16,-4.418064e-18,2.264627e-16,39.331947,3.019502e-16,3.004884e-16,0,0,0,0,0,0
2.018735,4.795998,-10.534832,1.891618e-12,0,0,1.891618e-12,0,2.220446e-16,9.732583e-18,0,0,0,0,2.224704e-16,-4.257788e-19,1.114481e-16,-47.504967,1.485974e-16,1.484557e-16,0,0,0,0,0,0
2.066025,4.795998,-10.555488,1.891618e-12,0,0,1.891618e-12,2.220446e-16,0,-1.305019e-17,0,0,0,0,2.22809e-16,-7.643651e-19,1.117867e-16,41.647945,1.490489e-16,1.487948e-16,0,0,0,0,0,0
2.113316,4.795998,-10.575849,1.891618e-12,0,0,1.891618e-12,2.220446e-16,-1.110223e-16,-3.153801e-17,0,0,0,0,2.250046e-16,-1.139823e-16,1.694935e-16,39.638176,2.259913e-16,1.991823e-16,0,0,0,0,0,0
2.160606,4.795998,-10.594771,1.891618e-12,0,0,1.891618e-12,-2.220446e-16,2.220446e-16,2.870193e-17,0,0,0,0,2.23892e-16,-2.23892e-16,2.23892e-16,-48.682663,2.985226e-16,2.585282e-16,0,0,0,0,0,0
2.207896,4.795998,-10.6091,1.891618e-12,0,0,1.891618e-12,-2.220446e-16,0,-2.599567e-18,0,0,0,0,3.043002e-20,-2.22075e-16,1.110527e-16,-44.329338,1.480703e-16,1.480602e-16,0,0,0,0,0,0
2.255187,4.795998,-10.616592,1.891618e-12,0,0,1.891618e-12,2.220446e-16,0,-1.527673e-17,0,0,0,0,2.230907e-16,-1.046115e-18,1.120684e-16,41.082634,1.494246e-16,1.490771e-16,0,0,0,0,0,0
2.302477,4.795998,-10.619894,1.891618e-12,0,0,1.891618e-12,0,0,2.623036e-17,0,0,0,0,2.623036e-17,-2.623036e-17,2.623036e-17,90,3.497381e-17,3.02882e-17,0,0,0,0,0,0
2.349768,4.795998,-10.62387,1.891618e-12,0,0,1.891618e-12,-2.220446e-16,-2.220446e-16,-3.303501e-17,0,0,0,0,-1.890096e-16,-2.550796e-16,3.303501e-17,0,4.404668e-17,1.528656e-16,0,0,0,0,0,0
2.397058,4.795998,-10.630802,1.891618e-12,0,0,1.891618e-12,2.220446e-16,-2.220446e-16,8.775989e-18,0,0,0,0,2.22218e-16,-2.22218e-16,2.22218e-16,46.131676,2.962906e-16,2.565952e-16,0,0,0,0,0,0
2.444349,4.795998,-10.639096,1.891618e-12,0,0,1.891618e-12,0,2.220446e-16,-6.501185e-18,0,0,0,0,2.222348e-16,-1.901836e-19,1.112125e-16,-43.324364,1.482833e-16,1.4822e-16,0,0,0,0,0,0
2.491639,4.795998,-10.645605,1.891618e-12,0,0,1.891618e-12,0,-1.110223e-16,-8.37891e-18,0,0,0,0,6.287994e-19,-1.116511e-16,5.613995e-17,40.708256,7.485327e-17,7.464455e-17,0,0,0,0,0,0
2.53893,4.795998,-10.648685,1.891618e-12,0,0,1.891618e-12,-1.110223e-16,2.220446e-16,3.74478e-17,0,0,0,0,2.262031e-16,-1.151808e-16,1.706919e-16,-51.336552,2.275892e-16,2.005422e-16,0,0,0,0,0,0
2.58622,4.795998,-10.64871,1.891618e-12,0,0,1.891618e-12,0,-1.110223e-16,-8.415029e-18,0,0,0,0,6.342014e-19,-1.116565e-16,5.614535e-17,40.690033,7.486047e-17,7.464997e-17,0,0,0,0,0,0
2.633511,4.795998,-10.645688,1.891618e-12,0,0,1.891618e-12,2.220446e-16,-4.440892e-16,-4.021453e-17,0,0,0,0,2.244636e-16,-4.465082e-16,3.354859e-16,41.557713,4.473145e-16,3.943931e-16,0,0,0,0,0,0
2.680801,4.795998,-10.638597,1.891618e-12,0,0,1.891618e-12,4.440892e-16,2.220446e-16,-3.050575e-17,0,0,0,0,4.48204e-16,2.179298e-16,1.151371e-16,37.317963,1.535161e-16,2.588034e-16,0,0,0,0,0,0
2.728091,4.795998,-10.627184,1.891618e-12,0,0,1.891618e-12,0,2.220446e-16,-5.73171e-17,0,0,0,0,2.359671e-16,-1.392249e-17,1.249448e-16,-31.347105,1.665931e-16,1.621516e-16,0,0,0,0,0,0
2.775382,4.795998,-10.611996,1.891618e-12,0,0,1.891618e-12,-1.110223e-16,0,3.781777e-18,0,0,0,0,1.286704e-19,-1.11151e-16,5.563982e-17,-46.948669,7.418643e-17,7.414357e-17,0,0,0,0,0,0
2.822672,4.795998,-10.594789,1.891618e-12,0,0,1.891618e-12,2.220446e-16,2.220446e-16,-3.054596e-17,0,0,0,0,2.525906e-16,1.914986e-16,3.054596e-17,0,4.072795e-17,1.521738e-16,0,0,0,0,0,0
2.869963,4.795998,-10.577027,1.891618e-12,0,0,1.891618e-12,0,0,-4.327266e-17,0,0,0,0,4.327266e-17,-4.327266e-17,4.327266e-17,0,5.769689e-17,4.996697e-17,0,0,0,0,0,0
2.917253,4.795998,-10.55911,1.891618e-12,0,0,1.891618e-12,0,2.220446e-16,1.174816e-17,0,0,0,0,2.226644e-16,-6.198533e-19,1.116422e-16,-48.020226,1.488562e-16,1.4865e-16,0,0,0,0,0,0
2.964544,4.795998,-10.539268,1.891618e-12,0,0,1.891618e-12,0,2.220446e-16,2.973299e-17,0,0,0,0,2.259571e-16,-3.912472e-18,1.149348e-16,-52.496304,1.532464e-16,1.51959e-16,0,0,0,0,0,0
3.011834,4.795998,-10.514975,1.891618e-12,0,0,1.891618e-12,-1.110223e-16,2.220446e-16,2.673342e-17,0,0,0,0,2.241767e-16,-1.131544e-16,1.686655e-16,-49.55991,2.248874e-16,1.98243e-16,0,0,0,0,0,0
3.059125,4.795998,-10.48453,1.891618e-12,0,0,1.891618e-12,-2.220446e-16,-1.110223e-16,-2.885803e-17,0,0,0,0,-1.039693e-16,-2.290976e-16,6.256416e-17,-31.26594,8.341888e-17,1.324575e-16,0,0,0,0,0,0
3.106415,4.795998,-10.447382,1.891618e-12,0,0,1.891618e-12,0,-1.110223e-16,2.215162e-17,0,0,0,0,4.256583e-18,-1.152789e-16,5.976774e-17,55.87719,7.969032e-17,7.831002e-17,0,0,0,0,0,0
3.153705,4.795998,-10.40467,1.891618e-12,0,0,1.891618e-12,0,0,1.107708e-17,0,0,0,0,1.107708e-17,-1.107708e-17,1.107708e-17,90,1.476945e-17,1.279072e-17,0,0,0,0,0,0
3.200996,4.795998,-10.358324,1.891618e-12,0,0,1.891618e-12,0,0,-4.654554e-17,0,0,0,0,4.654554e-17,-4.654554e-17,4.654554e-17,0,6.206072e-17,5.374616e-17,0,0,0,0,0,0
3.248286,4.795998,-10.309198,1.891618e-12,0,0,1.891618e-12,0,-2.220446e-16,-3.983629e-17,0,0,0,0,6.930578e-18,-2.289752e-16,1.179529e-16,35.130665,1.572705e-16,1.55012e-16,0,0,0,0,0,0
3.295577,4.795998,-10.258774,1.891618e-12,0,0,1.891618e-12,0,-1.110223e-16,1.499115e-17,0,0,0,0,1.988609e-18,-1.130109e-16,5.749976e-17,52.556297,7.666635e-17,7.601215e-17,0,0,0,0,0,0
3.342867,4.795998,-10.20796,1.891618e-12,0,0,1.891618e-12,2.220446e-16,2.220446e-16,-2.256488e-17,0,0,0,0,2.446095e-16,1.994797e-16,2.256488e-17,0,3.008651e-17,1.503054e-16,0,0,0,0,0,0
1.49854,4.748707,-9.964308,1.891618e-12,0,0,1.891618e-12,2.220446e-16,0,8.140852e-17,0,0,0,0,2.486933e-16,-2.664868e-17,1.37671e-16,63.125603,1.835613e-16,1.753547e-16,0,0,0,0,0,0
1.54583,4.748707,-10.061905,1.891618e-12,0,0,1.891618e-12,0,0,-2.61337e-17,0,0,0,0,2.61337e-17,-2.61337e-17,2.61337e-17,0,3.484493e-17,3.01766e-17,0,0,0,0,0,0
1.593121,4.748707,-10.156107,1.891618e-12,0,0,1.891618e-12,-4.440892e-16,2.220446e-16,-3.68309e-17,0,0,0,0,2.240748e-16,-4.461194e-16,3.350971e-16,-41.844902,4.467962e-16,3.939522e-16,0,0,0,0,0,0
1.640411,4.748707,-10.223659,1.891618e-12,0,0,1.891618e-12,2.220446e-16,2.220446e-16,2.742205e-17,0,0,0,0,2.494667e-16,1.946226e-16,2.742205e-17,90,3.656273e-17,1.513784e-16,0,0,0,0,0,0
1.687701,4.748707,-10.282131,1.891618e-12,0,0,1.891618e-12,-3.330669e-16,-1.110223e-16,-2.152005e-17,0,0,0,0,-1.089559e-16,-3.351334e-16,1.130887e-16,-39.515045,1.50785e-16,1.973953e-16,0,0,0,0,0,0
1.734992,4.748707,-10.333823,1.891618e-12,0,0,1.891618e-12,0,0,-1.704062e-17,0,0,0,0,1.704062e-17,-1.704062e-17,1.704062e-17,0,2.272082e-17,1.967681e-17,0,0,0,0,0,0
1.782282,4.748707,-10.378873,1.891618e-12,0,0,1.891618e-12,-2.220446e-16,0,9.870701e-18,0,0,0,0,4.379253e-19,-2.224825e-16,1.114602e-16,-47.540329,1.486136e-16,1.484679e-16,0,0,0,0,0,0
1.829573,4.748707,-10.418877,1.891618e-12,0,0,1.891618e-12,2.220446e-16,0,-1.196561e-17,0,0,0,0,2.226876e-16,-6.429448e-19,1.116653e-16,41.924297,1.48887e-16,1.486731e-16,0,0,0,0,0,0
1.876863,4.748707,-10.45528,1.891618e-12,0,0,1.891618e-12,0,-1.110223e-16,1.811218e-17,0,0,0,0,2.880105e-18,-1.139024e-16,5.839126e-17,54.035233,7.785501e-17,7.691295e-17,0,0,0,0,0,0
1.924154,4.748707,-10.487938,1.891618e-12,0,0,1.891618e-12,2.220446e-16,0,1.616144e-17,0,0,0,0,2.232148e-16,-1.170138e-18,1.121924e-16,49.141167,1.495899e-16,1.492014e-16,0,0,0,0,0,0
1.971444,4.748707,-10.515423,1.891618e-12,0,0,1.891618e-12,0,0,2.320544e-17,0,0,0,0,2.320544e-17,-2.320544e-17,2.320544e-17,90,3.094059e-17,2.679533e-17,0,0,0,0,0,0
2.018735,4.748707,-10.537693,1.891618e-12,0,0,1.891618e-12,-1.110223e-16,2.220446e-16,-1.195549e-17,0,0,0,0,2.224732e-16,-1.114509e-16,1.669621e-16,-42.94688,2.226161e-16,1.963109e-16,0,0,0,0,0,0
2.066025,4.748707,-10.557428,1.891618e-12,0,0,1.891618e-12,2.220446e-16,2.220446e-16,-2.971991e-17,0,0,0,0,2.517645e-16,1.923247e-16,2.971991e-17,0,3.962655e-17,1.519556e-16,0,0,0,0,0,0
2.113316,4.748707,-10.577485,1.891618e-12,0,0,1.891618e-12,0,-1.110223e-16,8.894031e-18,0,0,0,0,7.079888e-19,-1.117303e-16,5.621914e-17,49.5513,7.495886e-17,7.472398e-17,0,0,0,0,0,0
2.160606,4.748707,-10.59707,1.891618e-12,0,0,1.891618e-12,-1.110223e-16,4.440892e-16,3.021564e-17,0,0,0,0,4.457291e-16,-1.126621e-16,2.791956e-16,-48.106472,3.722608e-16,3.409685e-16,0,0,0,0,0,0
2.207896,4.748707,-10.613111,1.891618e-12,0,0,1.891618e-12,2.220446e-16,2.220446e-16,2.440532e-19,0,0,0,0,2.222887e-16,2.218006e-16,2.440532e-19,90,3.254042e-19,1.4803e-16,0,0,0,0,0,0
2.255187,4.748707,-10.62303,1.891618e-12,0,0,1.891618e-12,2.220446e-16,-2.220446e-16,-7.335994e-18,0,0,0,0,2.221658e-16,-2.221658e-16,2.221658e-16,44.053864,2.96221e-16,2.565349e-16,0,0,0,0,0,0
2.302477,4.748707,-10.628096,1.891618e-12,0,0,1.891618e-12,2.220446e-16,0,-2.098887e-17,0,0,0,0,2.240112e-16,-1.966565e-18,1.129889e-16,39.647263,1.506518e-16,1.500006e-16,0,0,0,0,0,0
2.349768,4.748707,-10.632192,1.891618e-12,0,0,1.891618e-12,-1.110223e-16,0,-2.813033e-17,0,0,0,0,6.720703e-18,-1.17743e-16,6.223185e-17,-31.563169,8.29758e-17,8.082876e-17,0,0,0,0,0,0
2.397058,4.748707,-10.637822,1.891618e-12,0,0,1.891618e-12,2.220446e-16,-1.110223e-16,-6.514745e-18,0,0,0,0,2.22172e-16,-1.111497e-16,1.666608e-16,43.879871,2.222144e-16,1.959694e-16,0,0,0,0,0,0
2.444349,4.748707,-10.644024,1.891618e-12,0,0,1.891618e-12,2.220446e-16,2.220446e-16,-4.28071e-18,0,0,0,0,2.263253e-16,2.177639e-16,4.28071e-18,0,5.707613e-18,1.481122e-16,0,0,0,0,0,0
2.491639,4.748707,-10.648757,1.891618e-12,0,0,1.891618e-12,0,0,-3.275465e-17,0,0,0,0,3.275465e-17,-3.275465e-17,3.275465e-17,0,4.367286e-17,3.782181e-17,0,0,0,0,0,0
2.53893,4.748707,-10.650807,1.891618e-12,0,0,1.891618e-12,0,0,7.386006e-19,0,0,0,0,7.386006e-19,-7.386006e-19,7.386006e-19,90,9.848008e-19,8.528626e-19,0,0,0,0,0,0
2.58622,4.748707,-10.650405,1.891618e-12,0,0,1.891618e-12,-1.110223e-16,2.220446e-16,-3.260611e-17,0,0,0,0,2.252066e-16,-1.141843e-16,1.696955e-16,-39.46101,2.262606e-16,1.994115e-16,0,0,0,0,0,0
2.633511,4.748707,-10.647722,1.891618e-12,0,0,1.891618e-12,-2.220446e-16,-1.110223e-16,9.841667e-18,0,0,0,0,-1.101566e-16,-2.229103e-16,5.637683e-17,-50.026798,7.51691e-17,1.287002e-16,0,0,0,0,0,0
2.680801,4.748707,-10.641671,1.891618e-12,0,0,1.891618e-12,0,-1.110223e-16,3.197408e-17,0,0,0,0,8.549992e-18,-1.195723e-16,6.406114e-17,59.97084,8.541486e-17,8.271229e-17,0,0,0,0,0,0
2.728091,4.748707,-10.631135,1.891618e-12,0,0,1.891618e-12,-1.110223e-16,2.220446e-16,2.821416e-17,0,0,0,0,2.244177e-16,-1.133954e-16,1.689066e-16,-49.807884,2.252088e-16,1.985165e-16,0,0,0,0,0,0
2.775382,4.748707,-10.61585,1.891618e-12,0,0,1.891618e-12,0,-1.110223e-16,1.242162e-17,0,0,0,0,1.372806e-18,-1.123951e-16,5.688396e-17,51.306591,7.584528e-17,7.539184e-17,0,0,0,0,0,0
2.822672,4.748707,-10.597561,1.891618e-12,0,0,1.891618e-12,0,0,1.750762e-17,0,0,0,0,1.750762e-17,-1.750762e-17,1.750762e-17,90,2.33435e-17,2.021606e-17,0,0,0,0,0,0
2.869963,4.748707,-10.57839,1.891618e-12,0,0,1.891618e-12,0,2.220446e-16,-2.05979e-17,0,0,0,0,2.239392e-16,-1.894593e-18,1.129169e-16,-39.744728,1.505559e-16,1.499283e-16,0,0,0,0,0,0
2.917253,4.748707,-10.559593,1.891618e-12,0,0,1.891618e-12,-2.220446e-16,-1.110223e-16,2.1967e-17,0,0,0,0,-1.068339e-16,-2.26233e-16,5.969956e-17,-55.794907,7.959941e-17,1.306828e-16,0,0,0,0,0,0
2.964544,4.748707,-10.539803,1.891618e-12,0,0,1.891618e-12,2.220446e-16,2.220446e-16,-5.291517e-18,0,0,0,0,2.273361e-16,2.167531e-16,5.291517e-18,0,7.055356e-18,1.481558e-16,0,0,0,0,0,0
3.011834,4.748707,-10.516177,1.891618e-12,0,0,1.891618e-12,0,0,-1.449259e-17,0,0,0,0,1.449259e-17,-1.449259e-17,1.449259e-17,0,1.932345e-17,1.67346e-17,0,0,0,0,0,0
3.059125,4.748707,-10.486721,1.891618e-12,0,0,1.891618e-12,0,-1.110223e-16,-2.793275e-17,0,0,0,0,6.631638e-18,-1.176539e-16,6.214279e-17,31.644421,8.285705e-17,8.073734e-17,0,0,0,0,0,0
3.106415,4.748707,-10.450813,1.891618e-12,0,0,1.891618e-12,-4.440892e-16,-1.110223e-16,2.549255e-18,0,0,0,0,-1.110028e-16,-4.441087e-16,1.66553e-16,-45.438499,2.220706e-16,2.668806e-16,0,0,0,0,0,0
3.153705,4.748707,-10.4088,1.891618e-12,0,0,1.891618e-12,0,0,-4.642104e-18,0,0,0,0,4.642104e-18,-4.642104e-18,4.642104e-18,0,6.189472e-18,5.36024e-18,0,0,0,0,0,0
3.200996,4.748707,-10.362066,1.891618e-12,0,0,1.891618e-12,0,4.440892e-16,-2.087309e-17,0,0,0,0,4.450681e-16,-9.789193e-19,2.230235e-16,-42.314873,2.973647e-16,2.970389e-16,0,0,0,0,0,0
3.248286,4.748707,-10.31263,1.891618e-12,0,0,1.891618e-12,2.220446e-16,0,-7.538404e-18,0,0,0,0,2.223003e-16,-2.556342e-19,1.112779e-16,43.057793,1.483706e-16,1.482854e-16,0,0,0,0,0,0
3.295577,4.748707,-10.261042,1.891618e-12,0,0,1.891618e-12,2.220446e-16,2.220446e-16,-5.381096e-17,0,0,0,0,2.758556e-16,1.682336e-16,5.381096e-17,0,7.174795e-17,1.605417e-16,0,0,0,0,0,0
3.342867,4.748707,-10.209077,1.891618e-12,0,0,1.891618e-12,0,-1.110223e-16,-1.815082e-17,0,0,0,0,2.892105e-18,-1.139144e-16,5.840326e-17,35.946743,7.787101e-17,7.69251e-17,0,0,0,0,0,0
1.49854,4.701417,-9.97069,1.891618e-12,0,0,1.891618e-12,-2.220446e-16,2.220446e-16,1.323571e-17,0,0,0,0,2.224387e-16,-2.224387e-16,2.224387e-16,-46.705635,2.96585e-16,2.568501e-16,0,0,0,0,0,0
1.54583,4.701417,-10.060997,1.891618e-12,0,0,1.891618e-12,-2.220446e-16,-1.110223e-16,-5.236416e-17,0,0,0,0,-9.022163e-17,-2.428453e-16,7.631182e-17,-23.335493,1.017491e-16,1.417413e-16,0,0,0,0,0,0
1.593121,4.701417,-10.154523,1.891618e-12,0,0,1.891618e-12,-1.110223e-16,0,-5.973797e-17,0,0,0,0,2.603707e-17,-1.370594e-16,8.154822e-17,-21.449795,1.08731e-16,1.011749e-16,0,0,0,0,0,0
1.640411,4.701417,-10.225813,1.891618e-12,0,0,1.891618e-12,2.220446e-16,-2.220446e-16,1.551531e-17,0,0,0,0,2.22586e-16,-2.22586e-16,2.22586e-16,46.998516,2.967813e-16,2.570202e-16,0,0,0,0,0,0
1.687701,4.701417,-10.283753,1.891618e-12,0,0,1.891618e-12,-2.220446e-16,0,4.193961e-19,0,0,0,0,7.921491e-22,-2.220454e-16,1.110231e-16,-45.108219,1.480308e-16,1.480305e-16,0,0,0,0,0,0
1.734992,4.701417,-10.335193,1.891618e-12,0,0,1.891618e-12,2.220446e-16,-1.110223e-16,5.519467e-18,0,0,0,0,2.221361e-16,-1.111137e-16,1.666249e-16,45.949139,2.221665e-16,1.959286e-16,0,0,0,0,0,0
1.782282,4.701417,-10.38056,1.891618e-12,0,0,1.891618e-12,0,-1.110223e-16,2.540741e-18,0,0,0,0,5.811435e-20,-1.110804e-16,5.556927e-17,46.310299,7.409235e-17,7.407299e-17,0,0,0,0,0,0
1.829573,4.701417,-10.421645,1.891618e-12,0,0,1.891618e-12,-2.220446e-16,-2.220446e-16,-2.378757e-17,0,0,0,0,-1.98257e-16,-2.458322e-16,2.378757e-17,0,3.171676e-17,1.505565e-16,0,0,0,0,0,0
1.876863,4.701417,-10.459586,1.891618e-12,0,0,1.891618e-12,6.661338e-16,2.220446e-16,1.556902e-17,0,0,0,0,6.66679e-16,2.214994e-16,2.225898e-16,47.005413,2.967863e-16,3.920622e-16,0,0,0,0,0,0
1.924154,4.701417,-10.493275,1.891618e-12,0,0,1.891618e-12,0,0,2.225903e-17,0,0,0,0,2.225903e-17,-2.225903e-17,2.225903e-17,90,2.967871e-17,2.570251e-17,0,0,0,0,0,0
1.971444,4.701417,-10.520811,1.891618e-12,0,0,1.891618e-12,2.220446e-16,-1.110223e-16,6.253881e-18,0,0,0,0,2.22162e-16,-1.111397e-16,1.666508e-16,46.075317,2.222011e-16,1.95958e-16,0,0,0,0,0,0
2.018735,4.701417,-10.542294,1.891618e-12,0,0,1.891618e-12,0,2.220446e-16,-1.296319e-17,0,0,0,0,2.227988e-16,-7.542422e-19,1.117765e-16,-41.670094,1.490354e-16,1.487846e-16,0,0,0,0,0,0
2.066025,4.701417,-10.560686,1.891618e-12,0,0,1.891618e-12,0,2.220446e-16,-3.258615e-17,0,0,0,0,2.26728e-16,-4.683396e-18,1.157057e-16,-36.821255,1.542743e-16,1.527371e-16,0,0,0,0,0,0
2.113316,4.701417,-10.579846,1.891618e-12,0,0,1.891618e-12,-1.110223e-16,4.440892e-16,-1.75785e-17,0,0,0,0,4.446453e-16,-1.115784e-16,2.781119e-16,-43.188057,3.708158e-16,3.397855e-16,0,0,0,0,0,0
2.160606,4.701417,-10.599664,1.891618e-12,0,0,1.891618e-12,2.220446e-16,0,1.671521e-18,0,0,0,0,2.220572e-16,-1.258226e-20,1.110349e-16,45.431282,1.480465e-16,1.480423e-16,0,0,0,0,0,0
2.207896,4.701417,-10.617245,1.891618e-12,0,0,1.891618e-12,2.220446e-16,2.220446e-16,1.520757e-17,0,0,0,0,2.372522e-16,2.06837e-16,1.520757e-17,90,2.027676e-17,1.490676e-16,0,0,0,0,0,0
2.255187,4.701417,-10.629694,1.891618e-12,0,0,1.891618e-12,0,0,7.208294e-18,0,0,0,0,7.208294e-18,-7.208294e-18,7.208294e-18,90,9.611059e-18,8.323421e-18,0,0,0,0,0,0
2.302477,4.701417,-10.636918,1.891618e-12,0,0,1.891618e-12,2.220446e-16,-1.110223e-16,1.888076e-17,0,0,0,0,2.231115e-16,-1.120892e-16,1.676003e-16,48.23415,2.234671e-16,1.970348e-16,0,0,0,0,0,0
2.349768,4.701417,-10.641605,1.891618e-12,0,0,1.891618e-12,0,0,1.355957e-17,0,0,0,0,1.355957e-17,-1.355957e-17,1.355957e-17,90,1.807943e-17,1.565725e-17,0,0,0,0,0,0
2.397058,4.701417,-10.646353,1.891618e-12,0,0,1.891618e-12,2.220446e-16,0,-1.861855e-18,0,0,0,0,2.220602e-16,-1.561064e-20,1.110379e-16,44.519619,1.480505e-16,1.480453e-16,0,0,0,0,0,0
2.444349,4.701417,-10.650789,1.891618e-12,0,0,1.891618e-12,2.220446e-16,2.220446e-16,2.513257e-18,0,0,0,0,2.245579e-16,2.195314e-16,2.513257e-18,90,3.35101e-18,1.480582e-16,0,0,0,0,0,0
2.491639,4.701417,-10.653758,1.891618e-12,0,0,1.891618e-12,0,-1.110223e-16,1.213181e-17,0,0,0,0,1.310223e-18,-1.123325e-16,5.682137e-17,51.163998,7.576183e-17,7.532889e-17,0,0,0,0,0,0
2.53893,4.701417,-10.654407,1.891618e-12,0,0,1.891618e-12,2.220446e-16,-1.110223e-16,-1.646223e-17,0,0,0,0,2.228563e-16,-1.11834e-16,1.673451e-16,42.177258,2.231268e-16,1.967454e-16,0,0,0,0,0,0
2.58622,4.701417,-10.652921,1.891618e-12,0,0,1.891618e-12,0,2.220446e-16,-2.667683e-17,0,0,0,0,2.252046e-16,-3.160029e-18,1.141823e-16,-38.244453,1.522431e-16,1.512008e-16,0,0,0,0,0,0
2.633511,4.701417,-10.649877,1.891618e-12,0,0,1.891618e-12,0,0,1.287326e-17,0,0,0,0,1.287326e-17,-1.287326e-17,1.287326e-17,90,1.716435e-17,1.486476e-17,0,0,0,0,0,0
2.680801,4.701417,-10.64437,1.891618e-12,0,0,1.891618e-12,-6.661338e-16,2.220446e-16,9.0137e-18,0,0,0,0,2.221361e-16,-6.662253e-16,4.441807e-16,-45.581387,5.922409e-16,5.338303e-16,0,0,0,0,0,0
2.728091,4.701417,-10.634543,1.891618e-12,0,0,1.891618e-12,-1.110223e-16,0,-1.60136e-17,0,0,0,0,2.263613e-18,-1.132859e-16,5.777477e-17,-36.954224,7.703302e-17,7.628968e-17,0,0,0,0,0,0
2.775382,4.701417,-10.619464,1.891618e-12,0,0,1.891618e-12,-2.220446e-16,0,2.226733e-19,0,0,0,0,2.233035e-22,-2.220448e-16,1.110225e-16,-45.057457,1.4803e-16,1.4803e-16,0,0,0,0,0,0
2.822672,4.701417,-10.600463,1.891618e-12,0,0,1.891618e-12,0,0,-1.582445e-17,0,0,0,0,1.582445e-17,-1.582445e-17,1.582445e-17,0,2.109926e-17,1.82725e-17,0,0,0,0,0,0
2.869963,4.701417,-10.580198,1.891618e-12,0,0,1.891618e-12,0,2.220446e-16,-5.028387e-17,0,0,0,0,2.32901e-16,-1.08564e-17,1.218787e-16,-32.816715,1.625049e-16,1.590097e-16,0,0,0,0,0,0
2.917253,4.701417,-10.560613,1.891618e-12,0,0,1.891618e-12,-3.330669e-16,0,2.695774e-17,0,0,0,0,2.167793e-18,-3.352347e-16,1.687012e-16,-49.597519,2.24935e-16,2.242159e-16,0,0,0,0,0,0
2.964544,4.701417,-10.5405,1.891618e-12,0,0,1.891618e-12,2.220446e-16,0,3.34182e-17,0,0,0,0,2.269651e-16,-4.920474e-18,1.159428e-16,53.376011,1.545904e-16,1.529766e-16,0,0,0,0,0,0
3.011834,4.701417,-10.517035,1.891618e-12,0,0,1.891618e-12,2.220446e-16,2.220446e-16,3.051508e-18,0,0,0,0,2.250961e-16,2.189931e-16,3.051508e-18,90,4.068678e-18,1.480717e-16,0,0,0,0,0,0
3.059125,4.701417,-10.488208,1.891618e-12,0,0,1.891618e-12,0,2.220446e-16,-1.06379e-17,0,0,0,0,2.225531e-16,-5.084853e-19,1.115308e-16,-42.263378,1.487077e-16,1.485385e-16,0,0,0,0,0,0
3.106415,4.701417,-10.453166,1.891618e-12,0,0,1.891618e-12,0,-1.110223e-16,4.237053e-17,0,0,0,0,1.432258e-17,-1.253449e-16,6.983372e-17,63.676876,9.311164e-17,8.872363e-17,0,0,0,0,0,0
3.153705,4.701417,-10.41196,1.891618e-12,0,0,1.891618e-12,2.220446e-16,0,-2.122053e-17,0,0,0,0,2.240544e-16,-2.009828e-18,1.130321e-16,39.589569,1.507095e-16,1.500441e-16,0,0,0,0,0,0
3.200996,4.701417,-10.364589,1.891618e-12,0,0,1.891618e-12,2.220446e-16,0,2.208628e-17,0,0,0,0,2.242202e-16,-2.175558e-18,1.131979e-16,50.625641,1.509305e-16,1.502105e-16,0,0,0,0,0,0
3.248286,4.701417,-10.314879,1.891618e-12,0,0,1.891618e-12,-3.330669e-16,-1.110223e-16,5.3453e-17,0,0,0,0,-9.882458e-17,-3.452646e-16,1.2322e-16,-57.854519,1.642934e-16,2.053218e-16,0,0,0,0,0,0
3.295577,4.701417,-10.262185,1.891618e-12,0,0,1.891618e-12,2.220446e-16,2.220446e-16,3.068217e-17,0,0,0,0,2.527268e-16,1.913624e-16,3.068217e-17,90,4.090956e-17,1.522104e-16,0,0,0,0,0,0
3.342867,4.701417,-10.208608,1.891618e-12,0,0,1.891618e-12,0,2.220446e-16,4.170739e-17,0,0,0,0,2.296202e-16,-7.575582e-18,1.185979e-16,-55.294765,1.581305e-16,1.556668e-16,0,0,0,0,0,0
1.49854,4.654126,-9.976065,1.891618e-12,0,0,1.891618e-12,2.220446e-16,-3.330669e-16,3.363546e-17,0,0,0,0,2.240752e-16,-3.350975e-16,2.795864e-16,48.454834,3.727818e-16,3.249527e-16,0,0,0,0,0,0
1.54583,4.654126,-10.066123,1.891618e-12,0,0,1.891618e-12,-1.110223e-16,2.220446e-16,2.067862e-17,0,0,0,0,2.233235e-16,-1.123012e-16,1.678124e-16,-48.53912,2.237498e-16,1.972753e-16,0,0,0,0,0,0
1.593121,4.654126,-10.158471,1.891618e-12,0,0,1.891618e-12,0,-1.110223e-16,-2.159375e-17,0,0,0,0,4.052075e-18,-1.150744e-16,5.956322e-17,34.372021,7.941764e-17,7.810199e-17,0,0,0,0,0,0
1.640411,4.654126,-10.228608,1.891618e-12,0,0,1.891618e-12,0,2.220446e-16,-2.267087e-17,0,0,0,0,2.243357e-16,-2.291068e-18,1.133134e-16,-39.229404,1.510845e-16,1.503266e-16,0,0,0,0,0,0
1.687701,4.654126,-10.285688,1.891618e-12,0,0,1.891618e-12,2.220446e-16,-2.220446e-16,1.061565e-17,0,0,0,0,2.222982e-16,-2.222982e-16,2.222982e-16,46.368576,2.963976e-16,2.566879e-16,0,0,0,0,0,0
1.734992,4.654126,-10.336991,1.891618e-12,0,0,1.891618e-12,0,0,2.758423e-17,0,0,0,0,2.758423e-17,-2.758423e-17,2.758423e-17,90,3.677898e-17,3.185153e-17,0,0,0,0,0,0
1.782282,4.654126,-10.382933,1.891618e-12,0,0,1.891618e-12,2.220446e-16,-2.220446e-16,1.566557e-17,0,0,0,0,2.225965e-16,-2.225965e-16,2.225965e-16,47.017807,2.967954e-16,2.570323e-16,0,0,0,0,0,0
1.829573,4.654126,-10.425397,1.891618e-12,0,0,1.891618e-12,-2.220446e-16,0,-1.261811e-17,0,0,0,0,7.147481e-19,-2.227593e-16,1.117371e-16,-41.757969,1.489827e-16,1.487451e-16,0,0,0,0,0,0
1.876863,4.654126,-10.464996,1.891618e-12,0,0,1.891618e-12,-4.440892e-16,2.220446e-16,1.112918e-17,0,0,0,0,2.222305e-16,-4.442751e-16,3.332528e-16,-45.95689,4.443371e-16,3.918607e-16,0,0,0,0,0,0
1.924154,4.654126,-10.499906,1.891618e-12,0,0,1.891618e-12,2.220446e-16,2.220446e-16,-1.055177e-17,0,0,0,0,2.325964e-16,2.114928e-16,1.055177e-17,0,1.406903e-17,1.485303e-16,0,0,0,0,0,0
1.971444,4.654126,-10.527508,1.891618e-12,0,0,1.891618e-12,0,0,-1.519141e-18,0,0,0,0,1.519141e-18,-1.519141e-18,1.519141e-18,0,2.025522e-18,1.754154e-18,0,0,0,0,0,0
2.018735,4.654126,-10.547962,1.891618e-12,0,0,1.891618e-12,2.220446e-16,-1.110223e-16,-3.551025e-17,0,0,0,0,2.257885e-16,-1.147662e-16,1.702773e-16,38.981491,2.270364e-16,2.000718e-16,0,0,0,0,0,0
2.066025,4.654126,-10.564639,1.891618e-12,0,0,1.891618e-12,0,0,-2.098548e-17,0,0,0,0,2.098548e-17,-2.098548e-17,2.098548e-17,0,2.798064e-17,2.423194e-17,0,0,0,0,0,0
2.113316,4.654126,-10.581999,1.891618e-12,0,0,1.891618e-12,-3.330669e-16,0,4.672476e-17,0,0,0,0,6.430687e-18,-3.394976e-16,1.729641e-16,-52.836338,2.306189e-16,2.285055e-16,0,0,0,0,0,0
2.160606,4.654126,-10.600981,1.891618e-12,0,0,1.891618e-12,-1.110223e-16,0,1.578448e-17,0,0,0,0,2.200526e-18,-1.132228e-16,5.771168e-17,-52.936493,7.69489e-17,7.622598e-17,0,0,0,0,0,0
2.207896,4.654126,-10.619105,1.891618e-12,0,0,1.891618e-12,2.220446e-16,-1.110223e-16,4.518733e-17,0,0,0,0,2.280663e-16,-1.17044e-16,1.725552e-16,52.590576,2.300736e-16,2.026572e-16,0,0,0,0,0,0
2.255187,4.654126,-10.633223,1.891618e-12,0,0,1.891618e-12,0,0,4.114168e-17,0,0,0,0,4.114168e-17,-4.114168e-17,4.114168e-17,90,5.485558e-17,4.750633e-17,0,0,0,0,0,0
2.302477,4.654126,-10.642504,1.891618e-12,0,0,1.891618e-12,0,0,-1.871352e-17,0,0,0,0,1.871352e-17,-1.871352e-17,1.871352e-17,0,2.495136e-17,2.160851e-17,0,0,0,0,0,0
2.349768,4.654126,-10.648395,1.891618e-12,0,0,1.891618e-12,-1.110223e-16,-1.110223e-16,-3.720129e-17,0,0,0,0,-7.382102e-17,-1.482236e-16,3.720129e-17,0,4.960171e-17,8.557715e-17,0,0,0,0,0,0
2.397058,4.654126,-10.652983,1.891618e-12,0,0,1.891618e-12,-1.110223e-16,4.440892e-16,-1.789773e-18,0,0,0,0,4.44095e-16,-1.110281e-16,2.775615e-16,-44.815269,3.70082e-16,3.39185e-16,0,0,0,0,0,0
2.444349,4.654126,-10.65652,1.891618e-12,0,0,1.891618e-12,2.220446e-16,2.220446e-16,-2.760483e-17,0,0,0,0,2.496494e-16,1.944398e-16,2.760483e-17,0,3.680644e-17,1.514227e-16,0,0,0,0,0,0
2.491639,4.654126,-10.658383,1.891618e-12,0,0,1.891618e-12,-1.110223e-16,0,-3.67627e-17,0,0,0,0,1.10695e-17,-1.220918e-16,6.658065e-17,-28.242584,8.877421e-17,8.532406e-17,0,0,0,0,0,0
2.53893,4.654126,-10.658018,1.891618e-12,0,0,1.891618e-12,2.220446e-16,0,2.848925e-17,0,0,0,0,2.256416e-16,-3.597018e-18,1.146193e-16,52.196022,1.528258e-16,1.51641e-16,0,0,0,0,0,0
2.58622,4.654126,-10.65568,1.891618e-12,0,0,1.891618e-12,2.220446e-16,0,1.799052e-17,0,0,0,0,2.234928e-16,-1.448185e-18,1.124705e-16,49.602222,1.499606e-16,1.494803e-16,0,0,0,0,0,0
2.633511,4.654126,-10.651906,1.891618e-12,0,0,1.891618e-12,0,0,2.174563e-17,0,0,0,0,2.174563e-17,-2.174563e-17,2.174563e-17,90,2.899417e-17,2.510969e-17,0,0,0,0,0,0
2.680801,4.654126,-10.64613,1.891618e-12,0,0,1.891618e-12,2.220446e-16,0,3.315159e-18,0,0,0,0,2.220941e-16,-4.948477e-20,1.110718e-16,45.855179,1.480957e-16,1.480792e-16,0,0,0,0,0,0
2.728091,4.654126,-10.636573,1.891618e-12,0,0,1.891618e-12,-2.220446e-16,0,2.189036e-17,0,0,0,0,2.137494e-18,-2.241821e-16,1.131598e-16,-50.576992,1.508797e-16,1.501723e-16,0,0,0,0,0,0
2.775382,4.654126,-10.621906,1.891618e-12,0,0,1.891618e-12,2.220446e-16,2.220446e-16,4.647276e-18,0,0,0,0,2.266919e-16,2.173973e-16,4.647276e-18,90,6.196368e-18,1.48127e-16,0,0,0,0,0,0
2.822672,4.654126,-10.603092,1.891618e-12,0,0,1.891618e-12,0,0,-3.164747e-17,0,0,0,0,3.164747e-17,-3.164747e-17,3.164747e-17,0,4.219663e-17,3.654335e-17,0,0,0,0,0,0
2.869963,4.654126,-10.582788,1.891618e-12,0,0,1.891618e-12,0,-1.110223e-16,-5.151278e-18,0,0,0,0,2.384997e-19,-1.112608e-16,5.574965e-17,42.349148,7.433287e-17,7.42535e-17,0,0,0,0,0,0
2.917253,4.654126,-10.562742,1.891618e-12,0,0,1.891618e-12,-2.220446e-16,2.220446e-16,1.739955e-17,0,0,0,0,2.227253e-16,-2.227253e-16,2.227253e-16,-47.240288,2.969671e-16,2.57181e-16,0,0,0,0,0,0
2.964544,4.654126,-10.542085,1.891618e-12,0,0,1.891618e-12,2.220446e-16,2.220446e-16,4.155386e-17,0,0,0,0,2.635985e-16,1.804907e-16,4.155386e-17,90,5.540515e-17,1.55612e-16,0,0,0,0,0,0
3.011834,4.654126,-10.518357,1.891618e-12,0,0,1.891618e-12,-2.220446e-16,2.220446e-16,3.713542e-17,0,0,0,0,2.251285e-16,-2.251285e-16,2.251285e-16,-49.747227,3.001714e-16,2.59956e-16,0,0,0,0,0,0
3.059125,4.654126,-10.489516,1.891618e-12,0,0,1.891618e-12,0,0,-1.543559e-17,0,0,0,0,1.543559e-17,-1.543559e-17,1.543559e-17,0,2.058078e-17,1.782348e-17,0,0,0,0,0,0
3.106415,4.654126,-10.455189,1.891618e-12,0,0,1.891618e-12,-2.220446e-16,-2.220446e-16,-1.035091e-18,0,0,0,0,-2.210095e-16,-2.230797e-16,1.035091e-18,0,1.380122e-18,1.480346e-16,0,0,0,0,0,0
3.153705,4.654126,-10.415036,1.891618e-12,0,0,1.891618e-12,0,2.220446e-16,-4.197138e-17,0,0,0,0,2.297133e-16,-7.668675e-18,1.18691e-16,-34.645588,1.582546e-16,1.557614e-16,0,0,0,0,0,0
3.200996,4.654126,-10.368304,1.891618e-12,0,0,1.891618e-12,-2.220446e-16,0,-4.266557e-18,0,0,0,0,8.195108e-20,-2.221266e-16,1.111043e-16,-43.899612,1.48139e-16,1.481117e-16,0,0,0,0,0,0
3.248286,4.654126,-10.318857,1.891618e-12,0,0,1.891618e-12,0,-2.220446e-16,-9.624031e-18,0,0,0,0,4.163516e-19,-2.224609e-16,1.114387e-16,42.522835,1.485849e-16,1.484463e-16,0,0,0,0,0,0
3.295577,4.654126,-10.265347,1.891618e-12,0,0,1.891618e-12,0,0,-5.387281e-17,0,0,0,0,5.387281e-17,-5.387281e-17,5.387281e-17,0,7.183042e-17,6.220697e-17,0,0,0,0,0,0
3.342867,4.654126,-10.209454,1.891618e-12,0,0,1.891618e-12,0,2.220446e-16,-1.029045e-17,0,0,0,0,2.225205e-16,-4.758811e-19,1.114982e-16,-42.352245,1.486642e-16,1.485059e-16,0,0,0,0,0,0
1.49854,4.606836,-9.981712,1.891618e-12,0,0,1.891618e-12,2.220446e-16,2.220446e-16,-8.534666e-17,0,0,0,0,3.073912e-16,1.366979e-16,8.534666e-17,0,1.137955e-16,1.778338e-16,0,0,0,0,0,0
1.54583,4.606836,-10.070682,1.891618e-12,0,0,1.891618e-12,2.220446e-16,0,4.653083e-17,0,0,0,0,2.314012e-16,-9.356555e-18,1.203789e-16,56.369579,1.605051e-16,1.57479e-16,0,0,0,0,0,0
1.593121,4.606836,-10.161761,1.891618e-12,0,0,1.891618e-12,0,2.220446e-16,1.608784e-18,0,0,0,0,2.220563e-16,-1.165554e-20,1.11034e-16,-45.415096,1.480453e-16,1.480414e-16,0,0,0,0,0,0
1.640411,4.606836,-10.231172,1.891618e-12,0,0,1.891618e-12,-1.110223e-16,-1.110223e-16,-1.736185e-17,0,0,0,0,-9.366045e-17,-1.283841e-16,1.736185e-17,0,2.314914e-17,7.668189e-17,0,0,0,0,0,0
1.687701,4.606836,-10.287664,1.891618e-12,0,0,1.891618e-12,-2.220446e-16,0,-7.920545e-18,0,0,0,0,2.821749e-19,-2.223268e-16,1.113045e-16,-42.95966,1.48406e-16,1.48312e-16,0,0,0,0,0,0
1.734992,4.606836,-10.338832,1.891618e-12,0,0,1.891618e-12,0,-2.220446e-16,-5.005513e-17,0,0,0,0,1.076221e-17,-2.328068e-16,1.217845e-16,32.865726,1.623794e-16,1.589135e-16,0,0,0,0,0,0
1.782282,4.606836,-10.385466,1.891618e-12,0,0,1.891618e-12,-5.551115e-16,2.220446e-16,-3.144403e-17,0,0,0,0,2.233148e-16,-5.563817e-16,3.898482e-16,-42.686832,5.197976e-16,4.636466e-16,0,0,0,0,0,0
1.829573,4.606836,-10.429369,1.891618e-12,0,0,1.891618e-12,-2.220446e-16,2.220446e-16,7.757435e-18,0,0,0,0,2.221801e-16,-2.221801e-16,2.221801e-16,-46.000446,2.962401e-16,2.565515e-16,0,0,0,0,0,0
1.876863,4.606836,-10.470502,1.891618e-12,0,0,1.891618e-12,2.220446e-16,2.220446e-16,2.427721e-17,0,0,0,0,2.463218e-16,1.977674e-16,2.427721e-17,90,3.236962e-17,1.506607e-16,0,0,0,0,0,0
1.924154,4.606836,-10.50646,1.891618e-12,0,0,1.891618e-12,2.220446e-16,2.220446e-16,1.143463e-17,0,0,0,0,2.334792e-16,2.1061e-16,1.143463e-17,90,1.524618e-17,1.486174e-16,0,0,0,0,0,0
1.971444,4.606836,-10.534155,1.891618e-12,0,0,1.891618e-12,0,2.220446e-16,-6.579553e-18,0,0,0,0,2.222394e-16,-1.947922e-19,1.112171e-16,-43.304214,1.482895e-16,1.482246e-16,0,0,0,0,0,0
2.018735,4.606836,-10.553919,1.891618e-12,0,0,1.891618e-12,2.220446e-16,-1.110223e-16,1.989279e-17,0,0,0,0,2.232285e-16,-1.122062e-16,1.677174e-16,48.405914,2.236232e-16,1.971675e-16,0,0,0,0,0,0
2.066025,4.606836,-10.569247,1.891618e-12,0,0,1.891618e-12,-2.220446e-16,0,-1.885201e-17,0,0,0,0,1.589198e-18,-2.236338e-16,1.126115e-16,-40.181438,1.501487e-16,1.496218e-16,0,0,0,0,0,0
2.113316,4.606836,-10.584562,1.891618e-12,0,0,1.891618e-12,-1.110223e-16,0,1.776298e-18,0,0,0,0,2.841257e-20,-1.110507e-16,5.553957e-17,-45.916389,7.405275e-17,7.404329e-17,0,0,0,0,0,0
2.160606,4.606836,-10.601782,1.891618e-12,0,0,1.891618e-12,-1.110223e-16,2.220446e-16,2.74242e-17,0,0,0,0,2.242876e-16,-1.132653e-16,1.687764e-16,-49.675678,2.250352e-16,1.983688e-16,0,0,0,0,0,0
2.207896,4.606836,-10.619337,1.891618e-12,0,0,1.891618e-12,0,2.220446e-16,1.820267e-17,0,0,0,0,2.235269e-16,-1.482314e-18,1.125046e-16,-49.655544,1.500062e-16,1.495145e-16,0,0,0,0,0,0
2.255187,4.606836,-10.634147,1.891618e-12,0,0,1.891618e-12,-1.110223e-16,-2.220446e-16,3.247183e-17,0,0,0,0,-1.022224e-16,-2.308445e-16,6.431102e-17,60.162971,8.574803e-17,1.335683e-16,0,0,0,0,0,0
2.302477,4.606836,-10.644982,1.891618e-12,0,0,1.891618e-12,0,2.220446e-16,-2.410307e-17,0,0,0,0,2.246309e-16,-2.586279e-18,1.136086e-16,-38.875549,1.514781e-16,1.506234e-16,0,0,0,0,0,0
2.349768,4.606836,-10.652272,1.891618e-12,0,0,1.891618e-12,0,4.440892e-16,-4.230136e-17,0,0,0,0,4.480827e-16,-3.993471e-18,2.260381e-16,-39.60696,3.013841e-16,3.000618e-16,0,0,0,0,0,0
2.397058,4.606836,-10.65747,1.891618e-12,0,0,1.891618e-12,0,0,-8.967099e-18,0,0,0,0,8.967099e-18,-8.967099e-18,8.967099e-18,0,1.195613e-17,1.035431e-17,0,0,0,0,0,0
2.444349,4.606836,-10.660995,1.891618e-12,0,0,1.891618e-12,2.220446e-16,0,1.448623e-17,0,0,0,0,2.229857e-16,-9.410951e-19,1.119634e-16,48.716988,1.492845e-16,1.489718e-16,0,0,0,0,0,0
2.491639,4.606836,-10.66245,1.891618e-12,0,0,1.891618e-12,0,0,4.51283e-18,0,0,0,0,4.51283e-18,-4.51283e-18,4.51283e-18,90,6.017106e-18,5.210967e-18,0,0,0,0,0,0
2.53893,4.606836,-10.661509,1.891618e-12,0,0,1.891618e-12,-2.220446e-16,-2.220446e-16,3.657069e-17,0,0,0,0,-1.854739e-16,-2.586153e-16,3.657069e-17,90,4.876092e-17,1.539351e-16,0,0,0,0,0,0
2.58622,4.606836,-10.658461,1.891618e-12,0,0,1.891618e-12,2.220446e-16,0,-2.772909e-17,0,0,0,0,2.254551e-16,-3.410446e-18,1.144327e-16,37.988312,1.52577e-16,1.51453e-16,0,0,0,0,0,0
2.633511,4.606836,-10.653912,1.891618e-12,0,0,1.891618e-12,0,-5.551115e-16,2.195474e-18,0,0,0,0,8.682995e-21,-5.551202e-16,2.775644e-16,45.226601,3.700859e-16,3.70083e-16,0,0,0,0,0,0
2.680801,4.606836,-10.647543,1.891618e-12,0,0,1.891618e-12,-1.110223e-16,-1.110223e-16,3.271754e-17,0,0,0,0,-7.830476e-17,-1.437398e-16,3.271754e-17,90,4.362338e-17,8.309904e-17,0,0,0,0,0,0
2.728091,4.606836,-10.637854,1.891618e-12,0,0,1.891618e-12,2.220446e-16,-1.110223e-16,-1.747656e-17,0,0,0,0,2.229591e-16,-1.119368e-16,1.67448e-16,42.004562,2.23264e-16,1.96862e-16,0,0,0,0,0,0
2.775382,4.606836,-10.623748,1.891618e-12,0,0,1.891618e-12,2.220446e-16,-1.110223e-16,-4.119713e-17,0,0,0,0,2.270646e-16,-1.160423e-16,1.715535e-16,38.052551,2.28738e-16,2.015201e-16,0,0,0,0,0,0
2.822672,4.606836,-10.60598,1.891618e-12,0,0,1.891618e-12,-2.220446e-16,0,1.756469e-17,0,0,0,0,1.380856e-18,-2.234255e-16,1.124032e-16,-49.495087,1.498709e-16,1.494127e-16,0,0,0,0,0,0
2.869963,4.606836,-10.586443,1.891618e-12,0,0,1.891618e-12,0,2.220446e-16,-5.682133e-17,0,0,0,0,2.357404e-16,-1.369584e-17,1.247181e-16,-31.448294,1.662909e-16,1.619188e-16,0,0,0,0,0,0
2.917253,4.606836,-10.56654,1.891618e-12,0,0,1.891618e-12,-2.220446e-16,2.220446e-16,-1.811525e-17,0,0,0,0,2.227823e-16,-2.227823e-16,2.227823e-16,-42.667961,2.970431e-16,2.572469e-16,0,0,0,0,0,0
2.964544,4.606836,-10.545347,1.891618e-12,0,0,1.891618e-12,0,-1.110223e-16,5.335312e-18,0,0,0,0,2.558056e-19,-1.112781e-16,5.576696e-17,47.744987,7.435594e-17,7.427082e-17,0,0,0,0,0,0
3.011834,4.606836,-10.520786,1.891618e-12,0,0,1.891618e-12,-1.110223e-16,0,1.752071e-17,0,0,0,0,2.699358e-18,-1.137217e-16,5.821051e-17,-53.758503,7.761401e-17,7.673005e-17,0,0,0,0,0,0
3.059125,4.606836,-10.491393,1.891618e-12,0,0,1.891618e-12,2.220446e-16,2.220446e-16,4.513787e-18,0,0,0,0,2.265584e-16,2.175308e-16,4.513787e-18,90,6.018383e-18,1.481215e-16,0,0,0,0,0,0
3.106415,4.606836,-10.457302,1.891618e-12,0,0,1.891618e-12,4.440892e-16,-1.110223e-16,1.19847e-17,0,0,0,0,4.443478e-16,-1.112809e-16,2.778144e-16,46.236233,3.704192e-16,3.394609e-16,0,0,0,0,0,0
3.153705,4.606836,-10.418318,1.891618e-12,0,0,1.891618e-12,-2.220446e-16,-1.110223e-16,2.002142e-17,0,0,0,0,-1.075221e-16,-2.255449e-16,5.90114e-17,-54.916527,7.868186e-17,1.302654e-16,0,0,0,0,0,0
3.200996,4.606836,-10.373421,1.891618e-12,0,0,1.891618e-12,-2.220446e-16,-2.220446e-16,3.690971e-17,0,0,0,0,-1.851349e-16,-2.589543e-16,3.690971e-17,90,4.921295e-17,1.54043e-16,0,0,0,0,0,0
3.248286,4.606836,-10.324764,1.891618e-12,0,0,1.891618e-12,-2.220446e-16,2.220446e-16,-3.60834e-17,0,0,0,0,2.249574e-16,-2.249574e-16,2.249574e-16,-40.384914,2.999432e-16,2.597584e-16,0,0,0,0,0,0
3.295577,4.606836,-10.27107,1.891618e-12,0,0,1.891618e-12,-2.220446e-16,2.220446e-16,-1.190397e-17,0,0,0,0,2.223635e-16,-2.223635e-16,2.223635e-16,-43.465633,2.964846e-16,2.567632e-16,0,0,0,0,0,0
3.342867,4.606836,-10.213361,1.891618e-12,0,0,1.891618e-12,2.220446e-16,-4.440892e-16,-1.051293e-17,0,0,0,0,2.222105e-16,-4.442551e-16,3.332328e-16,44.096058,4.443104e-16,3.918379e-16,0,0,0,0,0,0
1.451249,4.559546,-9.917669,1.891618e-12,0,0,1.891618e-12,2.220446e-16,0,3.278863e-17,0,0,0,0,2.267852e-16,-4.740584e-18,1.157629e-16,53.226822,1.543505e-16,1.527948e-16,0,0,0,0,0,0
1.49854,4.559546,-9.988579,1.891618e-12,0,0,1.891618e-12,2.220446e-16,6.661338e-16,3.017494e-17,0,0,0,0,6.681747e-16,2.200037e-16,2.240856e-16,-48.869427,2.987807e-16,3.931967e-16,0,0,0,0,0,0
1.54583,4.559546,-10.07365,1.891618e-12,0,0,1.891618e-12,-1.110223e-16,2.220446e-16,-2.044541e-17,0,0,0,0,2.23295e-16,-1.122727e-16,1.677838e-16,-41.500393,2.237118e-16,1.972429e-16,0,0,0,0,0,0
1.593121,4.559546,-10.163578,1.891618e-12,0,0,1.891618e-12,-1.110223e-16,-1.110223e-16,-6.942182e-17,0,0,0,0,-4.160048e-17,-1.804441e-16,6.942182e-17,0,9.256243e-17,1.091057e-16,0,0,0,0,0,0
1.640411,4.559546,-10.232656,1.891618e-12,0,0,1.891618e-12,0,-1.110223e-16,-2.917752e-17,0,0,0,0,7.201014e-18,-1.182233e-16,6.271216e-17,31.136444,8.361622e-17,8.132222e-17,0,0,0,0,0,0
1.687701,4.559546,-10.289446,1.891618e-12,0,0,1.891618e-12,0,2.220446e-16,-4.584513e-17,0,0,0,0,2.311378e-16,-9.093174e-18,1.201155e-16,-33.781246,1.60154e-16,1.572106e-16,0,0,0,0,0,0
1.734992,4.559546,-10.340488,1.891618e-12,0,0,1.891618e-12,-2.220446e-16,-1.110223e-16,2.708752e-17,0,0,0,0,-1.04766e-16,-2.283009e-16,6.176748e-17,-58.005386,8.235664e-17,1.31958e-16,0,0,0,0,0,0
1.782282,4.559546,-10.387417,1.891618e-12,0,0,1.891618e-12,2.220446e-16,-1.110223e-16,3.459474e-17,0,0,0,0,2.255999e-16,-1.145776e-16,1.700888e-16,50.867702,2.26785e-16,1.998578e-16,0,0,0,0,0,0
1.829573,4.559546,-10.432197,1.891618e-12,0,0,1.891618e-12,-2.220446e-16,0,-2.846862e-17,0,0,0,0,3.591894e-18,-2.256365e-16,1.146142e-16,-37.808971,1.528189e-16,1.516358e-16,0,0,0,0,0,0
1.876863,4.559546,-10.474213,1.891618e-12,0,0,1.891618e-12,-2.220446e-16,2.220446e-16,-1.392203e-18,0,0,0,0,2.22049e-16,-2.22049e-16,2.22049e-16,-44.820381,2.960653e-16,2.564001e-16,0,0,0,0,0,0
1.924154,4.559546,-10.510721,1.891618e-12,0,0,1.891618e-12,2.220446e-16,-1.110223e-16,-2.522083e-17,0,0,0,0,2.239436e-16,-1.129213e-16,1.684324e-16,40.694111,2.245766e-16,1.979786e-16,0,0,0,0,0,0
1.971444,4.559546,-10.538522,1.891618e-12,0,0,1.891618e-12,2.220446e-16,0,-1.936357e-17,0,0,0,0,2.237206e-16,-1.675965e-18,1.126983e-16,40.053238,1.502644e-16,1.497088e-16,0,0,0,0,0,0
2.018735,4.559546,-10.557959,1.891618e-12,0,0,1.891618e-12,-1.110223e-16,2.220446e-16,1.891546e-17,0,0,0,0,2.231154e-16,-1.120931e-16,1.676042e-16,-48.240044,2.234723e-16,1.970393e-16,0,0,0,0,0,0
2.066025,4.559546,-10.572609,1.891618e-12,0,0,1.891618e-12,-1.110223e-16,0,-3.138422e-17,0,0,0,0,8.257627e-18,-1.192799e-16,6.376878e-17,-30.258791,8.502503e-17,8.241052e-17,0,0,0,0,0,0
2.113316,4.559546,-10.586615,1.891618e-12,0,0,1.891618e-12,-3.330669e-16,0,-1.254749e-17,0,0,0,0,4.720277e-19,-3.335389e-16,1.670055e-16,-42.845589,2.22674e-16,2.225168e-16,0,0,0,0,0,0
2.160606,4.559546,-10.602109,1.891618e-12,0,0,1.891618e-12,0,2.220446e-16,-5.787447e-17,0,0,0,0,2.362238e-16,-1.417916e-17,1.252015e-16,-31.23378,1.669353e-16,1.624153e-16,0,0,0,0,0,0
2.207896,4.559546,-10.618297,1.891618e-12,0,0,1.891618e-12,-2.220446e-16,-2.220446e-16,-1.235098e-17,0,0,0,0,-2.096936e-16,-2.343956e-16,1.235098e-17,0,1.646798e-17,1.487152e-16,0,0,0,0,0,0
2.255187,4.559546,-10.632978,1.891618e-12,0,0,1.891618e-12,0,-1.110223e-16,2.735418e-17,0,0,0,0,6.373734e-18,-1.17396e-16,6.188488e-17,58.116325,8.251318e-17,8.047278e-17,0,0,0,0,0,0
2.302477,4.559546,-10.645009,1.891618e-12,0,0,1.891618e-12,-1.110223e-16,0,3.599908e-17,0,0,0,0,1.065093e-17,-1.216732e-16,6.616209e-17,-61.481739,8.821611e-17,8.488882e-17,0,0,0,0,0,0
2.349768,4.559546,-10.65402,1.891618e-12,0,0,1.891618e-12,2.220446e-16,-2.220446e-16,1.867516e-17,0,0,0,0,2.228286e-16,-2.228286e-16,2.228286e-16,47.403786,2.971047e-16,2.573003e-16,0,0,0,0,0,0
2.397058,4.559546,-10.66048,1.891618e-12,0,0,1.891618e-12,2.220446e-16,-1.110223e-16,6.917277e-19,0,0,0,0,2.22046e-16,-1.110237e-16,1.665349e-16,45.118992,2.220465e-16,1.958266e-16,0,0,0,0,0,0
2.444349,4.559546,-10.664513,1.891618e-12,0,0,1.891618e-12,-2.220446e-16,-2.220446e-16,-4.250105e-17,0,0,0,0,-1.795436e-16,-2.645456e-16,4.250105e-17,0,5.666807e-17,1.559527e-16,0,0,0,0,0,0
2.491639,4.559546,-10.666064,1.891618e-12,0,0,1.891618e-12,-1.110223e-16,2.220446e-16,1.315287e-17,0,0,0,0,2.225632e-16,-1.115409e-16,1.67052e-16,-47.257935,2.227361e-16,1.96413e-16,0,0,0,0,0,0
2.53893,4.559546,-10.665182,1.891618e-12,0,0,1.891618e-12,2.220446e-16,0,2.57816e-17,0,0,0,0,2.249988e-16,-2.954197e-18,1.139765e-16,51.536755,1.519687e-16,1.509936e-16,0,0,0,0,0,0
2.58622,4.559546,-10.661764,1.891618e-12,0,0,1.891618e-12,2.220446e-16,-1.110223e-16,-2.169848e-17,0,0,0,0,2.234523e-16,-1.1243e-16,1.679411e-16,41.288235,2.239215e-16,1.974213e-16,0,0,0,0,0,0
2.633511,4.559546,-10.656285,1.891618e-12,0,0,1.891618e-12,2.220446e-16,0,-4.449901e-17,0,0,0,0,2.306305e-16,-8.585864e-18,1.196082e-16,34.079262,1.594776e-16,1.56694e-16,0,0,0,0,0,0
2.680801,4.559546,-10.649001,1.891618e-12,0,0,1.891618e-12,2.220446e-16,0,2.023808e-17,0,0,0,0,2.238741e-16,-1.829509e-18,1.128518e-16,50.165462,1.504691e-16,1.49863e-16,0,0,0,0,0,0
2.728091,4.559546,-10.638849,1.891618e-12,0,0,1.891618e-12,2.220446e-16,0,-4.45641e-17,0,0,0,0,2.306547e-16,-8.610095e-18,1.196324e-16,34.064793,1.595099e-16,1.567187e-16,0,0,0,0,0,0
2.775382,4.559546,-10.625334,1.891618e-12,0,0,1.891618e-12,0,2.220446e-16,1.512948e-17,0,0,0,0,2.230707e-16,-1.026137e-18,1.120484e-16,-48.88007,1.493979e-16,1.49057e-16,0,0,0,0,0,0
2.822672,4.559546,-10.608898,1.891618e-12,0,0,1.891618e-12,0,2.220446e-16,1.209362e-18,0,0,0,0,2.220512e-16,-6.586575e-21,1.110289e-16,-45.31205,1.480385e-16,1.480363e-16,0,0,0,0,0,0
2.869963,4.559546,-10.590486,1.891618e-12,0,0,1.891618e-12,-2.220446e-16,0,-1.954185e-17,0,0,0,0,1.706733e-18,-2.237513e-16,1.12729e-16,-40.008606,1.503054e-16,1.497397e-16,0,0,0,0,0,0
2.917253,4.559546,-10.570798,1.891618e-12,0,0,1.891618e-12,-2.220446e-16,2.220446e-16,-5.645332e-19,0,0,0,0,2.220453e-16,-2.220453e-16,2.220453e-16,-44.927166,2.960604e-16,2.563958e-16,0,0,0,0,0,0
2.964544,4.559546,-10.548935,1.891618e-12,0,0,1.891618e-12,-1.110223e-16,0,-6.609547e-18,0,0,0,0,3.921047e-19,-1.114144e-16,5.590325e-17,-41.604965,7.453768e-17,7.440732e-17,0,0,0,0,0,0
3.011834,4.559546,-10.523063,1.891618e-12,0,0,1.891618e-12,0,0,6.276711e-19,0,0,0,0,6.276711e-19,-6.276711e-19,6.276711e-19,90,8.368948e-19,7.247721e-19,0,0,0,0,0,0
3.059125,4.559546,-10.492862,1.891618e-12,0,0,1.891618e-12,2.220446e-16,0,9.654867e-18,0,0,0,0,2.224636e-16,-4.190189e-19,1.114413e-16,47.485062,1.485884e-16,1.48449e-16,0,0,0,0,0,0
3.106415,4.559546,-10.458807,1.891618e-12,0,0,1.891618e-12,0,-1.110223e-16,1.907734e-17,0,0,0,0,3.18666e-18,-1.14209e-16,5.869781e-17,54.483074,7.826375e-17,7.722344e-17,0,0,0,0,0,0
3.153705,4.559546,-10.420848,1.891618e-12,0,0,1.891618e-12,-4.440892e-16,-1.110223e-16,-4.380506e-17,0,0,0,0,-1.053574e-16,-4.497541e-16,1.721984e-16,-37.631363,2.295978e-16,2.716158e-16,0,0,0,0,0,0
3.200996,4.559546,-10.377983,1.891618e-12,0,0,1.891618e-12,2.220446e-16,-1.110223e-16,5.277537e-17,0,0,0,0,2.30207e-16,-1.191847e-16,1.746958e-16,53.791847,2.329278e-16,2.050879e-16,0,0,0,0,0,0
3.248286,4.559546,-10.330295,1.891618e-12,0,0,1.891618e-12,-2.220446e-16,2.220446e-16,1.126733e-17,0,0,0,0,2.223303e-16,-2.223303e-16,2.223303e-16,-46.45245,2.964404e-16,2.567249e-16,0,0,0,0,0,0
3.295577,4.559546,-10.277111,1.891618e-12,0,0,1.891618e-12,0,-2.220446e-16,2.674756e-17,0,0,0,0,3.176574e-18,-2.252212e-16,1.141989e-16,51.772797,1.522652e-16,1.512174e-16,0,0,0,0,0,0
3.342867,4.559546,-10.219082,1.891618e-12,0,0,1.891618e-12,2.220446e-16,2.220446e-16,3.010847e-17,0,0,0,0,2.521531e-16,1.919361e-16,3.010847e-17,90,4.014463e-17,1.520575e-16,0,0,0,0,0,0
1.451249,4.512255,-9.914632,1.891618e-12,0,0,1.891618e-12,-7.771561e-16,-1.110223e-16,-1.002627e-17,0,0,0,0,-1.108714e-16,-7.77307e-16,3.332178e-16,-44.137875,4.442904e-16,4.85486e-16,0,0,0,0,0,0
1.49854,4.512255,-9.990214,1.891618e-12,0,0,1.891618e-12,-1.110223e-16,-1.110223e-16,5.716817e-17,0,0,0,0,-5.385413e-17,-1.681905e-16,5.716817e-17,90,7.622422e-17,9.91756e-17,0,0,0,0,0,0
1.54583,4.512255,-10.075232,1.891618e-12,0,0,1.891618e-12,-1.110223e-16,2.220446e-16,-3.251981e-17,0,0,0,0,2.251901e-16,-1.141677e-16,1.696789e-16,-39.475307,2.262385e-16,1.993927e-16,0,0,0,0,0,0
1.593121,4.512255,-10.164428,1.891618e-12,0,0,1.891618e-12,0,2.220446e-16,1.873805e-17,0,0,0,0,2.236148e-16,-1.570176e-18,1.125925e-16,-49.789974,1.501233e-16,1.496027e-16,0,0,0,0,0,0
1.640411,4.512255,-10.23357,1.891618e-12,0,0,1.891618e-12,2.220446e-16,2.220446e-16,4.80828e-18,0,0,0,0,2.268529e-16,2.172363e-16,4.80828e-18,90,6.41104e-18,1.481338e-16,0,0,0,0,0,0
1.687701,4.512255,-10.291231,1.891618e-12,0,0,1.891618e-12,0,2.220446e-16,-2.148384e-17,0,0,0,0,2.241042e-16,-2.059557e-18,1.130819e-16,-39.524052,1.507758e-16,1.50094e-16,0,0,0,0,0,0
1.734992,4.512255,-10.342067,1.891618e-12,0,0,1.891618e-12,0,2.220446e-16,1.170913e-17,0,0,0,0,2.226603e-16,-6.157528e-19,1.116381e-16,-48.010265,1.488507e-16,1.486459e-16,0,0,0,0,0,0
1.782282,4.512255,-10.388776,1.891618e-12,0,0,1.891618e-12,-3.330669e-16,2.220446e-16,-9.138556e-17,0,0,0,0,2.36702e-16,-3.477243e-16,2.922131e-16,-35.887905,3.896175e-16,3.39442e-16,0,0,0,0,0,0
1.829573,4.512255,-10.433512,1.891618e-12,0,0,1.891618e-12,2.220446e-16,2.220446e-16,-8.200798e-18,0,0,0,0,2.302454e-16,2.138438e-16,8.200798e-18,0,1.09344e-17,1.483323e-16,0,0,0,0,0,0
1.876863,4.512255,-10.47561,1.891618e-12,0,0,1.891618e-12,2.220446e-16,-4.440892e-16,1.003514e-17,0,0,0,0,2.221957e-16,-4.442404e-16,3.33218e-16,45.862885,4.442908e-16,3.918212e-16,0,0,0,0,0,0
1.924154,4.512255,-10.512086,1.891618e-12,0,0,1.891618e-12,-2.220446e-16,2.220446e-16,2.515405e-17,0,0,0,0,2.234648e-16,-2.234648e-16,2.234648e-16,-48.231564,2.979531e-16,2.58035e-16,0,0,0,0,0,0
1.971444,4.512255,-10.539989,1.891618e-12,0,0,1.891618e-12,0,2.220446e-16,1.83252e-17,0,0,0,0,2.235468e-16,-1.502203e-18,1.125245e-16,-49.686329,1.500327e-16,1.495345e-16,0,0,0,0,0,0
2.018735,4.512255,-10.55961,1.891618e-12,0,0,1.891618e-12,0,0,1.836861e-17,0,0,0,0,1.836861e-17,-1.836861e-17,1.836861e-17,90,2.449148e-17,2.121025e-17,0,0,0,0,0,0
2.066025,4.512255,-10.574326,1.891618e-12,0,0,1.891618e-12,-1.110223e-16,2.220446e-16,2.221716e-17,0,0,0,0,2.235201e-16,-1.124978e-16,1.680089e-16,-48.799469,2.240119e-16,1.974982e-16,0,0,0,0,0,0
2.113316,4.512255,-10.587846,1.891618e-12,0,0,1.891618e-12,0,4.440892e-16,2.256012e-18,0,0,0,0,4.441006e-16,-1.146045e-20,2.220561e-16,-45.291058,2.960748e-16,2.960709e-16,0,0,0,0,0,0
2.160606,4.512255,-10.602084,1.891618e-12,0,0,1.891618e-12,0,0,6.706279e-18,0,0,0,0,6.706279e-18,-6.706279e-18,6.706279e-18,90,8.941705e-18,7.743744e-18,0,0,0,0,0,0
2.207896,4.512255,-10.616797,1.891618e-12,0,0,1.891618e-12,4.440892e-16,0,-1.686164e-17,0,0,0,0,4.447285e-16,-6.392995e-19,2.226839e-16,42.828701,2.969119e-16,2.96699e-16,0,0,0,0,0,0
2.255187,4.512255,-10.630829,1.891618e-12,0,0,1.891618e-12,2.220446e-16,0,-1.307809e-18,0,0,0,0,2.220523e-16,-7.702526e-21,1.1103e-16,44.662552,1.4804e-16,1.480374e-16,0,0,0,0,0,0
2.302477,4.512255,-10.643536,1.891618e-12,0,0,1.891618e-12,0,0,-3.093019e-17,0,0,0,0,3.093019e-17,-3.093019e-17,3.093019e-17,0,4.124026e-17,3.571511e-17,0,0,0,0,0,0
2.349768,4.512255,-10.654367,1.891618e-12,0,0,1.891618e-12,0,2.220446e-16,-1.172922e-17,0,0,0,0,2.226625e-16,-6.178613e-19,1.116402e-16,-41.984612,1.488535e-16,1.48648e-16,0,0,0,0,0,0
2.397058,4.512255,-10.662477,1.891618e-12,0,0,1.891618e-12,-2.220446e-16,2.220446e-16,2.987573e-17,0,0,0,0,2.240455e-16,-2.240455e-16,2.240455e-16,-48.831516,2.987273e-16,2.587054e-16,0,0,0,0,0,0
2.444349,4.512255,-10.667567,1.891618e-12,0,0,1.891618e-12,-1.110223e-16,-1.110223e-16,-2.37557e-17,0,0,0,0,-8.72666e-17,-1.34778e-16,2.37557e-17,0,3.167427e-17,7.893444e-17,0,0,0,0,0,0
2.491639,4.512255,-10.669525,1.891618e-12,0,0,1.891618e-12,2.220446e-16,0,-4.374595e-17,0,0,0,0,2.303524e-16,-8.307742e-18,1.1933e-16,34.247074,1.591067e-16,1.56411e-16,0,0,0,0,0,0
2.53893,4.512255,-10.668773,1.891618e-12,0,0,1.891618e-12,-1.110223e-16,0,-3.536904e-17,0,0,0,0,1.031025e-17,-1.213325e-16,6.58214e-17,-28.748337,8.776186e-17,8.453496e-17,0,0,0,0,0,0
2.58622,4.512255,-10.665282,1.891618e-12,0,0,1.891618e-12,-1.110223e-16,-1.110223e-16,-1.050299e-17,0,0,0,0,-1.005193e-16,-1.215253e-16,1.050299e-17,0,1.400399e-17,7.50019e-17,0,0,0,0,0,0
2.633511,4.512255,-10.659283,1.891618e-12,0,0,1.891618e-12,-1.110223e-16,0,8.484665e-18,0,0,0,0,6.446807e-19,-1.11667e-16,5.615583e-17,-49.345093,7.487444e-17,7.466048e-17,0,0,0,0,0,0
2.680801,4.512255,-10.650995,1.891618e-12,0,0,1.891618e-12,-1.110223e-16,0,-1.484954e-17,0,0,0,0,1.951852e-18,-1.129742e-16,5.746301e-17,-37.51186,7.661734e-17,7.597508e-17,0,0,0,0,0,0
2.728091,4.512255,-10.640047,1.891618e-12,0,0,1.891618e-12,2.220446e-16,-1.110223e-16,7.033281e-18,0,0,0,0,2.22193e-16,-1.111708e-16,1.666819e-16,46.209179,2.222425e-16,1.959933e-16,0,0,0,0,0,0
2.775382,4.512255,-10.626671,1.891618e-12,0,0,1.891618e-12,2.220446e-16,-1.110223e-16,1.375005e-17,0,0,0,0,2.226113e-16,-1.11589e-16,1.671001e-16,47.359997,2.228002e-16,1.964675e-16,0,0,0,0,0,0
2.822672,4.512255,-10.611418,1.891618e-12,0,0,1.891618e-12,-2.220446e-16,0,-9.265152e-19,0,0,0,0,3.865959e-21,-2.220485e-16,1.110262e-16,-44.760929,1.480349e-16,1.480336e-16,0,0,0,0,0,0
2.869963,4.512255,-10.594288,1.891618e-12,0,0,1.891618e-12,0,2.220446e-16,3.496661e-17,0,0,0,0,2.274208e-16,-5.376216e-18,1.163985e-16,-53.74094,1.55198e-16,1.534374e-16,0,0,0,0,0,0
2.917253,4.512255,-10.574876,1.891618e-12,0,0,1.891618e-12,2.220446e-16,-1.110223e-16,-3.447746e-18,0,0,0,0,2.220803e-16,-1.11058e-16,1.665691e-16,44.406986,2.220922e-16,1.958654e-16,0,0,0,0,0,0
2.964544,4.512255,-10.552246,1.891618e-12,0,0,1.891618e-12,-1.110223e-16,-1.110223e-16,-4.468658e-19,0,0,0,0,-1.105754e-16,-1.114692e-16,4.468658e-19,0,5.95821e-19,7.401666e-17,0,0,0,0,0,0
3.011834,4.512255,-10.525127,1.891618e-12,0,0,1.891618e-12,0,-1.110223e-16,3.820476e-17,0,0,0,0,1.187647e-17,-1.228988e-16,6.738763e-17,62.26857,8.985016e-17,8.616461e-17,0,0,0,0,0,0
3.059125,4.512255,-10.494187,1.891618e-12,0,0,1.891618e-12,2.220446e-16,-1.110223e-16,7.682732e-18,0,0,0,0,2.222217e-16,-1.111994e-16,1.667106e-16,46.320683,2.222808e-16,1.960258e-16,0,0,0,0,0,0
3.106415,4.512255,-10.460182,1.891618e-12,0,0,1.891618e-12,0,0,1.787126e-17,0,0,0,0,1.787126e-17,-1.787126e-17,1.787126e-17,90,2.382834e-17,2.063595e-17,0,0,0,0,0,0
3.153705,4.512255,-10.422963,1.891618e-12,0,0,1.891618e-12,0,0,-2.153927e-17,0,0,0,0,2.153927e-17,-2.153927e-17,2.153927e-17,0,2.871902e-17,2.48714e-17,0,0,0,0,0,0
3.200996,4.512255,-10.381387,1.891618e-12,0,0,1.891618e-12,-2.220446e-16,-2.220446e-16,9.47957e-18,0,0,0,0,-2.12565e-16,-2.315242e-16,9.47957e-18,90,1.263943e-17,1.484339e-16,0,0,0,0,0,0
3.248286,4.512255,-10.334708,1.891618e-12,0,0,1.891618e-12,-3.330669e-16,2.220446e-16,-2.715971e-18,0,0,0,0,2.220579e-16,-3.330802e-16,2.77569e-16,-44.719681,3.700921e-16,3.226386e-16,0,0,0,0,0,0
3.295577,4.512255,-10.282553,1.891618e-12,0,0,1.891618e-12,0,0,-3.080182e-17,0,0,0,0,3.080182e-17,-3.080182e-17,3.080182e-17,0,4.106909e-17,3.556688e-17,0,0,0,0,0,0
3.342867,4.512255,-10.225054,1.891618e-12,0,0,1.891618e-12,2.220446e-16,2.220446e-16,-1.751033e-17,0,0,0,0,2.395549e-16,2.045343e-16,1.751033e-17,0,2.334711e-17,1.494042e-16,0,0,0,0,0,0
1.451249,4.464965,-9.916096,1.891618e-12,0,0,1.891618e-12,0,-1.110223e-16,-1.055958e-16,0,0,0,0,6.378661e-17,-1.748089e-16,1.192978e-16,13.865335,1.590637e-16,1.426376e-16,0,0,0,0,0,0
1.49854,4.464965,-9.991315,1.891618e-12,0,0,1.891618e-12,0,0,-2.061545e-17,0,0,0,0,2.061545e-17,-2.061545e-17,2.061545e-17,0,2.748727e-17,2.380467e-17,0,0,0,0,0,0
1.54583,4.464965,-10.076853,1.891618e-12,0,0,1.891618e-12,2.220446e-16,-2.220446e-16,8.055254e-18,0,0,0,0,2.221907e-16,-2.221907e-16,2.221907e-16,46.038822,2.962542e-16,2.565637e-16,0,0,0,0,0,0
1.593121,4.464965,-10.166061,1.891618e-12,0,0,1.891618e-12,-1.110223e-16,2.220446e-16,3.013505e-17,0,0,0,0,2.247492e-16,-1.137269e-16,1.69238e-16,-50.128483,2.256507e-16,1.988925e-16,0,0,0,0,0,0
1.640411,4.464965,-10.235763,1.891618e-12,0,0,1.891618e-12,-3.330669e-16,0,3.582603e-17,0,0,0,0,3.810009e-18,-3.368769e-16,1.703435e-16,-51.070446,2.271246e-16,2.258653e-16,0,0,0,0,0,0
1.687701,4.464965,-10.293805,1.891618e-12,0,0,1.891618e-12,0,-1.110223e-16,-2.077013e-17,0,0,0,0,3.758455e-18,-1.147808e-16,5.926961e-17,34.743046,7.902614e-17,7.780359e-17,0,0,0,0,0,0
1.734992,4.464965,-10.34439,1.891618e-12,0,0,1.891618e-12,0,0,-1.550414e-17,0,0,0,0,1.550414e-17,-1.550414e-17,1.550414e-17,0,2.067219e-17,1.790264e-17,0,0,0,0,0,0
1.782282,4.464965,-10.390661,1.891618e-12,0,0,1.891618e-12,0,2.220446e-16,1.446278e-17,0,0,0,0,2.229827e-16,-9.38064e-19,1.119604e-16,-48.711037,1.492805e-16,1.489688e-16,0,0,0,0,0,0
1.829573,4.464965,-10.434781,1.891618e-12,0,0,1.891618e-12,-4.440892e-16,0,-2.620182e-17,0,0,0,0,1.540596e-18,-4.456298e-16,2.235852e-16,-41.635036,2.981136e-16,2.976014e-16,0,0,0,0,0,0
1.876863,4.464965,-10.476267,1.891618e-12,0,0,1.891618e-12,-2.220446e-16,-1.110223e-16,-1.045565e-17,0,0,0,0,-1.100462e-16,-2.230207e-16,5.648724e-17,-39.666592,7.531632e-17,1.287648e-16,0,0,0,0,0,0
1.924154,4.464965,-10.512276,1.891618e-12,0,0,1.891618e-12,-4.440892e-16,-2.220446e-16,-4.07385e-17,0,0,0,0,-2.148063e-16,-4.513275e-16,1.182606e-16,-34.92495,1.576808e-16,2.606746e-16,0,0,0,0,0,0
1.971444,4.464965,-10.540249,1.891618e-12,0,0,1.891618e-12,2.220446e-16,-2.220446e-16,1.265199e-17,0,0,0,0,2.224048e-16,-2.224048e-16,2.224048e-16,46.630577,2.965397e-16,2.568109e-16,0,0,0,0,0,0
2.018735,4.464965,-10.560499,1.891618e-12,0,0,1.891618e-12,-2.220446e-16,4.440892e-16,4.10387e-18,0,0,0,0,4.441145e-16,-2.220699e-16,3.330922e-16,-45.352966,4.441229e-16,3.916785e-16,0,0,0,0,0,0
2.066025,4.464965,-10.57605,1.891618e-12,0,0,1.891618e-12,-3.330669e-16,-1.110223e-16,-8.865265e-18,0,0,0,0,-1.106689e-16,-3.334203e-16,1.113757e-16,-42.717274,1.485009e-16,1.960923e-16,0,0,0,0,0,0
2.113316,4.464965,-10.589906,1.891618e-12,0,0,1.891618e-12,2.220446e-16,0,2.242724e-17,0,0,0,0,2.242872e-16,-2.242576e-18,1.132649e-16,50.71022,1.510198e-16,1.502779e-16,0,0,0,0,0,0
2.160606,4.464965,-10.603423,1.891618e-12,0,0,1.891618e-12,-3.330669e-16,0,-1.786101e-17,0,0,0,0,9.550744e-19,-3.34022e-16,1.674885e-16,-41.939163,2.23318e-16,2.230003e-16,0,0,0,0,0,0
2.207896,4.464965,-10.616579,1.891618e-12,0,0,1.891618e-12,0,2.220446e-16,1.633117e-17,0,0,0,0,2.232393e-16,-1.194714e-18,1.12217e-16,-49.184044,1.496227e-16,1.49226e-16,0,0,0,0,0,0
2.255187,4.464965,-10.629379,1.891618e-12,0,0,1.891618e-12,2.220446e-16,-1.110223e-16,1.658187e-17,0,0,0,0,2.228681e-16,-1.118458e-16,1.67357e-16,47.843121,2.231426e-16,1.967588e-16,0,0,0,0,0,0
2.302477,4.464965,-10.642019,1.891618e-12,0,0,1.891618e-12,0,0,-3.168437e-17,0,0,0,0,3.168437e-17,-3.168437e-17,3.168437e-17,0,4.224583e-17,3.658596e-17,0,0,0,0,0,0
2.349768,4.464965,-10.654121,1.891618e-12,0,0,1.891618e-12,-1.110223e-16,2.220446e-16,-5.129976e-18,0,0,0,0,2.221236e-16,-1.111013e-16,1.666125e-16,-44.117794,2.221499e-16,1.959145e-16,0,0,0,0,0,0
2.397058,4.464965,-10.663934,1.891618e-12,0,0,1.891618e-12,-1.110223e-16,2.220446e-16,-2.545208e-17,0,0,0,0,2.239784e-16,-1.129561e-16,1.684672e-16,-40.655231,2.246229e-16,1.980181e-16,0,0,0,0,0,0
2.444349,4.464965,-10.670122,1.891618e-12,0,0,1.891618e-12,0,2.220446e-16,-2.731806e-17,0,0,0,0,2.253561e-16,-3.311541e-18,1.143338e-16,-38.08823,1.524451e-16,1.513534e-16,0,0,0,0,0,0
2.491639,4.464965,-10.672524,1.891618e-12,0,0,1.891618e-12,2.220446e-16,0,-3.009831e-17,0,0,0,0,2.260521e-16,-4.007518e-18,1.150298e-16,37.41581,1.533731e-16,1.520549e-16,0,0,0,0,0,0
2.53893,4.464965,-10.671867,1.891618e-12,0,0,1.891618e-12,-2.220446e-16,-1.110223e-16,1.92977e-19,0,0,0,0,-1.11022e-16,-2.220449e-16,5.551149e-17,-45.09959,7.401531e-17,1.281977e-16,0,0,0,0,0,0
2.58622,4.464965,-10.668218,1.891618e-12,0,0,1.891618e-12,2.220446e-16,-1.110223e-16,-1.454746e-17,0,0,0,0,2.226788e-16,-1.116565e-16,1.671676e-16,42.503811,2.228902e-16,1.965441e-16,0,0,0,0,0,0
2.633511,4.464965,-10.661714,1.891618e-12,0,0,1.891618e-12,0,6.661338e-16,-1.813624e-18,0,0,0,0,6.661387e-16,-4.937757e-21,3.330719e-16,-44.844006,4.440958e-16,4.440941e-16,0,0,0,0,0,0
2.680801,4.464965,-10.652535,1.891618e-12,0,0,1.891618e-12,0,-1.110223e-16,2.276917e-17,0,0,0,0,4.488208e-18,-1.155105e-16,5.999936e-17,56.151054,7.999915e-17,7.854583e-17,0,0,0,0,0,0
2.728091,4.464965,-10.640659,1.891618e-12,0,0,1.891618e-12,2.220446e-16,0,-1.298986e-17,0,0,0,0,2.228019e-16,-7.573385e-19,1.117796e-16,41.663303,1.490395e-16,1.487877e-16,0,0,0,0,0,0
2.775382,4.464965,-10.627266,1.891618e-12,0,0,1.891618e-12,-2.220446e-16,0,3.95496e-17,0,0,0,0,6.83406e-18,-2.288787e-16,1.178564e-16,-54.803741,1.571418e-16,1.549141e-16,0,0,0,0,0,0
2.822672,4.464965,-10.612914,1.891618e-12,0,0,1.891618e-12,-1.110223e-16,-1.110223e-16,4.525617e-18,0,0,0,0,-1.064967e-16,-1.155479e-16,4.525617e-18,90,6.034156e-18,7.419912e-17,0,0,0,0,0,0
2.869963,4.464965,-10.59695,1.891618e-12,0,0,1.891618e-12,2.220446e-16,0,-4.012358e-17,0,0,0,0,2.290725e-16,-7.027913e-18,1.180502e-16,35.065044,1.574003e-16,1.551107e-16,0,0,0,0,0,0
2.917253,4.464965,-10.578066,1.891618e-12,0,0,1.891618e-12,2.220446e-16,0,-1.705522e-17,0,0,0,0,2.23347e-16,-1.302371e-18,1.123247e-16,40.633255,1.497662e-16,1.49334e-16,0,0,0,0,0,0
2.964544,4.464965,-10.555092,1.891618e-12,0,0,1.891618e-12,0,0,-6.305729e-18,0,0,0,0,6.305729e-18,-6.305729e-18,6.305729e-18,0,8.407638e-18,7.281228e-18,0,0,0,0,0,0
3.011834,4.464965,-10.527305,1.891618e-12,0,0,1.891618e-12,-1.110223e-16,2.220446e-16,-3.405143e-17,0,0,0,0,2.254902e-16,-1.144679e-16,1.699791e-16,-39.221954,2.266388e-16,1.997333e-16,0,0,0,0,0,0
3.059125,4.464965,-10.496103,1.891618e-12,0,0,1.891618e-12,0,-1.110223e-16,2.772719e-17,0,0,0,0,6.539512e-18,-1.175618e-16,6.205066e-17,58.270802,8.273422e-17,8.064281e-17,0,0,0,0,0,0
3.106415,4.464965,-10.462441,1.891618e-12,0,0,1.891618e-12,-4.440892e-16,0,-2.087705e-17,0,0,0,0,9.7929e-19,-4.450685e-16,2.230239e-16,-42.314365,2.973652e-16,2.970393e-16,0,0,0,0,0,0
3.153705,4.464965,-10.425725,1.891618e-12,0,0,1.891618e-12,-4.440892e-16,0,8.253837e-18,0,0,0,0,1.533528e-19,-4.442426e-16,2.22198e-16,-46.064407,2.962639e-16,2.962128e-16,0,0,0,0,0,0
3.200996,4.464965,-10.384782,1.891618e-12,0,0,1.891618e-12,2.220446e-16,0,3.166547e-17,0,0,0,0,2.264721e-16,-4.427485e-18,1.154498e-16,52.95953,1.53933e-16,1.524786e-16,0,0,0,0,0,0
3.248286,4.464965,-10.338704,1.891618e-12,0,0,1.891618e-12,-2.220446e-16,0,2.187388e-18,0,0,0,0,2.154613e-20,-2.220662e-16,1.110438e-16,-45.564354,1.480585e-16,1.480513e-16,0,0,0,0,0,0
3.295577,4.464965,-10.287351,1.891618e-12,0,0,1.891618e-12,2.220446e-16,0,-5.441595e-17,0,0,0,0,2.346631e-16,-1.26185e-17,1.236408e-16,31.944447,1.648544e-16,1.608133e-16,0,0,0,0,0,0
3.342867,4.464965,-10.230488,1.891618e-12,0,0,1.891618e-12,2.220446e-16,0,-3.661839e-17,0,0,0,0,2.279276e-16,-5.883037e-18,1.169053e-16,35.872967,1.558738e-16,1.539502e-16,0,0,0,0,0,0
1.451249,4.417674,-9.917839,1.891618e-12,0,0,1.891618e-12,-2.220446e-16,0,4.092263e-18,0,0,0,0,7.539444e-20,-2.2212e-16,1.110977e-16,-46.055477,1.481303e-16,1.481051e-16,0,0,0,0,0,0
1.49854,4.417674,-9.993803,1.891618e-12,0,0,1.891618e-12,-1.110223e-16,2.220446e-16,7.326443e-17,0,0,0,0,2.374481e-16,-1.264258e-16,1.81937e-16,-56.873264,2.425826e-16,2.133174e-16,0,0,0,0,0,0
1.54583,4.417674,-10.08053,1.891618e-12,0,0,1.891618e-12,2.220446e-16,0,3.488104e-18,0,0,0,0,2.220994e-16,-5.478119e-20,1.110771e-16,45.899765,1.481028e-16,1.480845e-16,0,0,0,0,0,0
1.593121,4.417674,-10.170005,1.891618e-12,0,0,1.891618e-12,0,-1.110223e-16,-3.665484e-17,0,0,0,0,1.101001e-17,-1.220323e-16,6.652116e-17,28.281311,8.869488e-17,8.526217e-17,0,0,0,0,0,0
1.640411,4.417674,-10.240096,1.891618e-12,0,0,1.891618e-12,-1.110223e-16,4.440892e-16,2.201787e-17,0,0,0,0,4.449612e-16,-1.118942e-16,2.784277e-16,-47.267822,3.712369e-16,3.401303e-16,0,0,0,0,0,0
1.687701,4.417674,-10.298119,1.891618e-12,0,0,1.891618e-12,0,0,-1.050312e-17,0,0,0,0,1.050312e-17,-1.050312e-17,1.050312e-17,0,1.400416e-17,1.212796e-17,0,0,0,0,0,0
1.734992,4.417674,-10.348745,1.891618e-12,0,0,1.891618e-12,0,0,-2.782349e-18,0,0,0,0,2.782349e-18,-2.782349e-18,2.782349e-18,0,3.709798e-18,3.21278e-18,0,0,0,0,0,0
1.782282,4.417674,-10.394561,1.891618e-12,0,0,1.891618e-12,-2.220446e-16,0,-5.536049e-17,0,0,0,0,1.30371e-17,-2.350817e-16,1.240594e-16,-31.748592,1.654125e-16,1.612426e-16,0,0,0,0,0,0
1.829573,4.417674,-10.437655,1.891618e-12,0,0,1.891618e-12,0,2.220446e-16,-4.289035e-17,0,0,0,0,2.300414e-16,-7.996747e-18,1.19019e-16,-34.438679,1.586921e-16,1.560948e-16,0,0,0,0,0,0
1.876863,4.417674,-10.477988,1.891618e-12,0,0,1.891618e-12,0,-1.110223e-16,-1.503078e-17,0,0,0,0,1.998953e-18,-1.130213e-16,5.75101e-17,37.424648,7.668014e-17,7.602258e-17,0,0,0,0,0,0
1.924154,4.417674,-10.513292,1.891618e-12,0,0,1.891618e-12,0,-1.110223e-16,3.895797e-17,0,0,0,0,1.230633e-17,-1.233286e-16,6.781748e-17,62.53067,9.042331e-17,8.661312e-17,0,0,0,0,0,0
1.971444,4.417674,-10.54133,1.891618e-12,0,0,1.891618e-12,-1.110223e-16,2.220446e-16,-3.038824e-17,0,0,0,0,2.247944e-16,-1.137722e-16,1.692833e-16,-39.829357,2.257111e-16,1.989439e-16,0,0,0,0,0,0
2.018735,4.417674,-10.562576,1.891618e-12,0,0,1.891618e-12,-1.110223e-16,-1.110223e-16,-1.093038e-18,0,0,0,0,-1.099293e-16,-1.121153e-16,1.093038e-18,0,1.457384e-18,7.402563e-17,0,0,0,0,0,0
2.066025,4.417674,-10.579541,1.891618e-12,0,0,1.891618e-12,-1.110223e-16,2.220446e-16,-3.882686e-17,0,0,0,0,2.265109e-16,-1.154886e-16,1.709998e-16,-38.438038,2.279997e-16,2.008916e-16,0,0,0,0,0,0
2.113316,4.417674,-10.594122,1.891618e-12,0,0,1.891618e-12,0,4.440892e-16,-2.139912e-17,0,0,0,0,4.45118e-16,-1.028766e-18,2.230734e-16,-42.247616,2.974312e-16,2.970888e-16,0,0,0,0,0,0
2.160606,4.417674,-10.607294,1.891618e-12,0,0,1.891618e-12,-1.110223e-16,-1.110223e-16,8.434954e-18,0,0,0,0,-1.025873e-16,-1.194573e-16,8.434954e-18,90,1.124661e-17,7.465296e-17,0,0,0,0,0,0
2.207896,4.417674,-10.618745,1.891618e-12,0,0,1.891618e-12,0,0,4.777423e-17,0,0,0,0,4.777423e-17,-4.777423e-17,4.777423e-17,90,6.369897e-17,5.516492e-17,0,0,0,0,0,0
2.255187,4.417674,-10.62957,1.891618e-12,0,0,1.891618e-12,-1.110223e-16,0,4.252552e-17,0,0,0,0,1.441673e-17,-1.25439e-16,6.992788e-17,-63.727352,9.323717e-17,8.882245e-17,0,0,0,0,0,0
2.302477,4.417674,-10.641432,1.891618e-12,0,0,1.891618e-12,2.220446e-16,0,-1.696987e-17,0,0,0,0,2.233341e-16,-1.289443e-18,1.123118e-16,40.654774,1.49749e-16,1.49321e-16,0,0,0,0,0,0
2.349768,4.417674,-10.653946,1.891618e-12,0,0,1.891618e-12,2.220446e-16,-2.220446e-16,7.339303e-18,0,0,0,0,2.221659e-16,-2.221659e-16,2.221659e-16,45.946564,2.962212e-16,2.56535e-16,0,0,0,0,0,0
2.397058,4.417674,-10.664873,1.891618e-12,0,0,1.891618e-12,0,0,2.316596e-17,0,0,0,0,2.316596e-17,-2.316596e-17,2.316596e-17,90,3.088795e-17,2.674975e-17,0,0,0,0,0,0
2.444349,4.417674,-10.671993,1.891618e-12,0,0,1.891618e-12,2.220446e-16,-1.110223e-16,-2.777661e-17,0,0,0,0,2.243452e-16,-1.133229e-16,1.68834e-16,40.26532,2.251121e-16,1.984342e-16,0,0,0,0,0,0
2.491639,4.417674,-10.674679,1.891618e-12,0,0,1.891618e-12,0,-1.110223e-16,-1.791371e-17,0,0,0,0,2.81885e-18,-1.138411e-16,5.833e-17,36.05743,7.777333e-17,7.685096e-17,0,0,0,0,0,0
2.53893,4.417674,-10.67388,1.891618e-12,0,0,1.891618e-12,-1.110223e-16,0,4.075519e-17,0,0,0,0,1.335447e-17,-1.243768e-16,6.886562e-17,-63.142689,9.182083e-17,8.770889e-17,0,0,0,0,0,0
2.58622,4.417674,-10.670109,1.891618e-12,0,0,1.891618e-12,-1.110223e-16,0,5.929225e-17,0,0,0,0,2.571113e-17,-1.367334e-16,8.122228e-17,-68.443192,1.082964e-16,1.008247e-16,0,0,0,0,0,0
2.633511,4.417674,-10.663058,1.891618e-12,0,0,1.891618e-12,-1.110223e-16,2.220446e-16,1.636374e-18,0,0,0,0,2.220527e-16,-1.110303e-16,1.665415e-16,-45.281487,2.220553e-16,1.958341e-16,0,0,0,0,0,0
2.680801,4.417674,-10.652956,1.891618e-12,0,0,1.891618e-12,-1.110223e-16,-2.220446e-16,4.082955e-17,0,0,0,0,-9.76238e-17,-2.354431e-16,6.890965e-17,63.167606,9.187953e-17,1.365919e-16,0,0,0,0,0,0
2.728091,4.417674,-10.640151,1.891618e-12,0,0,1.891618e-12,0,0,-4.803738e-18,0,0,0,0,4.803738e-18,-4.803738e-18,4.803738e-18,0,6.404984e-18,5.546878e-18,0,0,0,0,0,0
2.775382,4.417674,-10.626631,1.891618e-12,0,0,1.891618e-12,2.220446e-16,2.220446e-16,3.854419e-17,0,0,0,0,2.605888e-16,1.835004e-16,3.854419e-17,90,5.139226e-17,1.545758e-16,0,0,0,0,0,0
2.822672,4.417674,-10.612932,1.891618e-12,0,0,1.891618e-12,2.220446e-16,-2.220446e-16,4.264529e-18,0,0,0,0,2.220856e-16,-2.220856e-16,2.220856e-16,45.550137,2.961141e-16,2.564423e-16,0,0,0,0,0,0
2.869963,4.417674,-10.598049,1.891618e-12,0,0,1.891618e-12,0,0,-7.077339e-17,0,0,0,0,7.077339e-17,-7.077339e-17,7.077339e-17,0,9.436453e-17,8.172208e-17,0,0,0,0,0,0
2.917253,4.417674,-10.579725,1.891618e-12,0,0,1.891618e-12,-2.220446e-16,2.220446e-16,1.776548e-17,0,0,0,0,2.227542e-16,-2.227542e-16,2.227542e-16,-47.287205,2.970056e-16,2.572144e-16,0,0,0,0,0,0
2.964544,4.417674,-10.556793,1.891618e-12,0,0,1.891618e-12,-1.110223e-16,0,5.107435e-18,0,0,0,0,2.344657e-19,-1.112568e-16,5.574561e-17,-47.628418,7.432749e-17,7.424946e-17,0,0,0,0,0,0
3.011834,4.417674,-10.529169,1.891618e-12,0,0,1.891618e-12,0,-1.110223e-16,-4.438002e-17,0,0,0,0,1.555976e-17,-1.265821e-16,7.107091e-17,25.679193,9.476121e-17,9.002397e-17,0,0,0,0,0,0
3.059125,4.417674,-10.498499,1.891618e-12,0,0,1.891618e-12,-2.220446e-16,0,1.673051e-17,0,0,0,0,1.253526e-18,-2.232981e-16,1.122758e-16,-49.284855,1.497011e-16,1.49285e-16,0,0,0,0,0,0
3.106415,4.417674,-10.465635,1.891618e-12,0,0,1.891618e-12,0,-4.440892e-16,-6.973663e-18,0,0,0,0,1.094825e-19,-4.441987e-16,2.221541e-16,44.100563,2.962055e-16,2.96169e-16,0,0,0,0,0,0
3.153705,4.417674,-10.429459,1.891618e-12,0,0,1.891618e-12,-2.220446e-16,0,2.244466e-17,0,0,0,0,2.246026e-18,-2.242906e-16,1.132683e-16,-50.714539,1.510244e-16,1.502814e-16,0,0,0,0,0,0
3.200996,4.417674,-10.388559,1.891618e-12,0,0,1.891618e-12,0,-1.110223e-16,-2.391421e-17,0,0,0,0,4.932022e-18,-1.159543e-16,6.044317e-17,33.346809,8.05909e-17,7.899822e-17,0,0,0,0,0,0
3.248286,4.417674,-10.342532,1.891618e-12,0,0,1.891618e-12,-3.330669e-16,-1.110223e-16,-1.539194e-17,0,0,0,0,-1.099604e-16,-3.341288e-16,1.120842e-16,-41.053463,1.494456e-16,1.966298e-16,0,0,0,0,0,0
3.295577,4.417674,-10.291348,1.891618e-12,0,0,1.891618e-12,-3.330669e-16,4.440892e-16,-6.710508e-17,0,0,0,0,4.49841e-16,-3.388187e-16,3.943298e-16,-40.101002,5.257731e-16,4.568342e-16,0,0,0,0,0,0
3.342867,4.417674,-10.234324,1.891618e-12,0,0,1.891618e-12,2.220446e-16,0,-7.052895e-18,0,0,0,0,2.222684e-16,-2.237984e-19,1.112461e-16,43.182533,1.483281e-16,1.482536e-16,0,0,0,0,0,0
1.451249,4.370384,-9.91803,1.891618e-12,0,0,1.891618e-12,2.220446e-16,2.220446e-16,1.387064e-16,0,0,0,0,3.60751e-16,8.333822e-17,1.387064e-16,90,1.849419e-16,2.18095e-16,0,0,0,0,0,0
1.49854,4.370384,-9.997198,1.891618e-12,0,0,1.891618e-12,-2.220446e-16,0,-1.454351e-16,0,0,0,0,7.194575e-17,-2.939904e-16,1.829681e-16,-18.678705,2.439574e-16,2.238629e-16,0,0,0,0,0,0
1.54583,4.370384,-10.085373,1.891618e-12,0,0,1.891618e-12,2.220446e-16,0,4.374474e-17,0,0,0,0,2.303519e-16,-8.3073e-18,1.193296e-16,55.752655,1.591061e-16,1.564106e-16,0,0,0,0,0,0
1.593121,4.370384,-10.174845,1.891618e-12,0,0,1.891618e-12,2.220446e-16,-1.110223e-16,3.227116e-17,0,0,0,0,2.251426e-16,-1.141203e-16,1.696314e-16,50.483479,2.261752e-16,1.993388e-16,0,0,0,0,0,0
1.640411,4.370384,-10.24526,1.891618e-12,0,0,1.891618e-12,0,2.220446e-16,4.962287e-18,0,0,0,0,2.221555e-16,-1.108426e-19,1.111331e-16,-46.279602,1.481775e-16,1.481406e-16,0,0,0,0,0,0
1.687701,4.370384,-10.303901,1.891618e-12,0,0,1.891618e-12,2.220446e-16,2.220446e-16,1.45543e-17,0,0,0,0,2.365989e-16,2.074903e-16,1.45543e-17,90,1.940573e-17,1.489807e-16,0,0,0,0,0,0
1.734992,4.370384,-10.355199,1.891618e-12,0,0,1.891618e-12,-3.330669e-16,-1.110223e-16,-2.177769e-17,0,0,0,0,-1.089066e-16,-3.351827e-16,1.131381e-16,-39.451,1.508507e-16,1.974329e-16,0,0,0,0,0,0
1.782282,4.370384,-10.40078,1.891618e-12,0,0,1.891618e-12,0,0,5.349547e-18,0,0,0,0,5.349547e-18,-5.349547e-18,5.349547e-18,90,7.132729e-18,6.177124e-18,0,0,0,0,0,0
1.829573,4.370384,-10.442788,1.891618e-12,0,0,1.891618e-12,-2.220446e-16,0,3.96051e-17,0,0,0,0,6.852698e-18,-2.288973e-16,1.17875e-16,-54.816448,1.571667e-16,1.54933e-16,0,0,0,0,0,0
1.876863,4.370384,-10.481801,1.891618e-12,0,0,1.891618e-12,0,2.220446e-16,7.391122e-18,0,0,0,0,2.222904e-16,-2.457537e-19,1.112681e-16,-46.904373,1.483574e-16,1.482756e-16,0,0,0,0,0,0
1.924154,4.370384,-10.516204,1.891618e-12,0,0,1.891618e-12,-2.220446e-16,0,2.123213e-17,0,0,0,0,2.012006e-18,-2.240566e-16,1.130343e-16,-50.413319,1.507124e-16,1.500462e-16,0,0,0,0,0,0
1.971444,4.370384,-10.544178,1.891618e-12,0,0,1.891618e-12,2.220446e-16,2.220446e-16,2.558662e-17,0,0,0,0,2.476312e-16,1.96458e-16,2.558662e-17,90,3.41155e-17,1.509493e-16,0,0,0,0,0,0
2.018735,4.370384,-10.566416,1.891618e-12,0,0,1.891618e-12,-2.220446e-16,-1.110223e-16,-4.253063e-17,0,0,0,0,-9.660247e-17,-2.364644e-16,6.993098e-17,-26.270988,9.324131e-17,1.372822e-16,0,0,0,0,0,0
2.066025,4.370384,-10.584774,1.891618e-12,0,0,1.891618e-12,2.220446e-16,-1.110223e-16,3.16722e-17,0,0,0,0,2.250297e-16,-1.140073e-16,1.695185e-16,50.384106,2.260247e-16,1.992107e-16,0,0,0,0,0,0
2.113316,4.370384,-10.600268,1.891618e-12,0,0,1.891618e-12,2.220446e-16,0,1.038275e-17,0,0,0,0,2.225291e-16,-4.84438e-19,1.115067e-16,47.671368,1.486757e-16,1.485144e-16,0,0,0,0,0,0
2.160606,4.370384,-10.613091,1.891618e-12,0,0,1.891618e-12,0,2.220446e-16,-2.775552e-17,0,0,0,0,2.254615e-16,-3.416853e-18,1.144392e-16,-37.981892,1.525855e-16,1.514594e-16,0,0,0,0,0,0
2.207896,4.370384,-10.622742,1.891618e-12,0,0,1.891618e-12,2.220446e-16,-2.220446e-16,1.557371e-17,0,0,0,0,2.225901e-16,-2.225901e-16,2.225901e-16,47.006012,2.967868e-16,2.570249e-16,0,0,0,0,0,0
2.255187,4.370384,-10.631327,1.891618e-12,0,0,1.891618e-12,0,2.220446e-16,1.257992e-17,0,0,0,0,2.227551e-16,-7.10441e-19,1.117327e-16,-48.2323,1.48977e-16,1.487407e-16,0,0,0,0,0,0
2.302477,4.370384,-10.641835,1.891618e-12,0,0,1.891618e-12,2.220446e-16,0,-2.233949e-17,0,0,0,0,2.242698e-16,-2.225234e-18,1.132475e-16,39.311539,1.509967e-16,1.502605e-16,0,0,0,0,0,0
2.349768,4.370384,-10.654034,1.891618e-12,0,0,1.891618e-12,0,0,-1.314171e-17,0,0,0,0,1.314171e-17,-1.314171e-17,1.314171e-17,0,1.752227e-17,1.517473e-17,0,0,0,0,0,0
2.397058,4.370384,-10.665529,1.891618e-12,0,0,1.891618e-12,0,-2.220446e-16,9.353572e-18,0,0,0,0,3.933201e-19,-2.224379e-16,1.114156e-16,47.407883,1.485542e-16,1.484232e-16,0,0,0,0,0,0
2.444349,4.370384,-10.673555,1.891618e-12,0,0,1.891618e-12,0,2.220446e-16,-3.994942e-18,0,0,0,0,2.221165e-16,-7.185222e-20,1.110942e-16,-43.969601,1.481255e-16,1.481016e-16,0,0,0,0,0,0
2.491639,4.370384,-10.676585,1.891618e-12,0,0,1.891618e-12,-2.220446e-16,2.220446e-16,-7.268188e-18,0,0,0,0,2.221635e-16,-2.221635e-16,2.221635e-16,-44.062603,2.96218e-16,2.565323e-16,0,0,0,0,0,0
2.53893,4.370384,-10.67579,1.891618e-12,0,0,1.891618e-12,2.220446e-16,2.220446e-16,-1.724557e-18,0,0,0,0,2.237692e-16,2.2032e-16,1.724557e-18,0,2.299409e-18,1.480431e-16,0,0,0,0,0,0
2.58622,4.370384,-10.672043,1.891618e-12,0,0,1.891618e-12,0,-1.110223e-16,-2.836028e-17,0,0,0,0,6.82498e-18,-1.178473e-16,6.233613e-17,31.468906,8.311484e-17,8.093582e-17,0,0,0,0,0,0
2.633511,4.370384,-10.66468,1.891618e-12,0,0,1.891618e-12,0,0,2.575324e-17,0,0,0,0,2.575324e-17,-2.575324e-17,2.575324e-17,90,3.433765e-17,2.973728e-17,0,0,0,0,0,0
2.680801,4.370384,-10.653787,1.891618e-12,0,0,1.891618e-12,0,0,2.813865e-17,0,0,0,0,2.813865e-17,-2.813865e-17,2.813865e-17,90,3.75182e-17,3.249171e-17,0,0,0,0,0,0
2.728091,4.370384,-10.640369,1.891618e-12,0,0,1.891618e-12,0,-2.220446e-16,-8.508245e-18,0,0,0,0,3.255394e-19,-2.223702e-16,1.113478e-16,42.808838,1.484638e-16,1.483554e-16,0,0,0,0,0,0
2.775382,4.370384,-10.626538,1.891618e-12,0,0,1.891618e-12,2.220446e-16,2.220446e-16,-2.876327e-19,0,0,0,0,2.223322e-16,2.21757e-16,2.876327e-19,0,3.835103e-19,1.480301e-16,0,0,0,0,0,0
2.822672,4.370384,-10.613127,1.891618e-12,0,0,1.891618e-12,0,0,1.308654e-17,0,0,0,0,1.308654e-17,-1.308654e-17,1.308654e-17,90,1.744873e-17,1.511104e-17,0,0,0,0,0,0
2.869963,4.370384,-10.598625,1.891618e-12,0,0,1.891618e-12,0,0,-1.441844e-17,0,0,0,0,1.441844e-17,-1.441844e-17,1.441844e-17,0,1.922459e-17,1.664898e-17,0,0,0,0,0,0
2.917253,4.370384,-10.580285,1.891618e-12,0,0,1.891618e-12,-1.110223e-16,-1.110223e-16,-1.19828e-17,0,0,0,0,-9.90395e-17,-1.230051e-16,1.19828e-17,0,1.597707e-17,7.529709e-17,0,0,0,0,0,0
2.964544,4.370384,-10.5571,1.891618e-12,0,0,1.891618e-12,2.220446e-16,0,-6.056059e-17,0,0,0,0,2.374879e-16,-1.544326e-17,1.264656e-16,30.694178,1.686207e-16,1.63716e-16,0,0,0,0,0,0
3.011834,4.370384,-10.5299,1.891618e-12,0,0,1.891618e-12,2.220446e-16,0,7.138905e-18,0,0,0,0,2.222739e-16,-2.292846e-19,1.112516e-16,46.839573,1.483355e-16,1.482591e-16,0,0,0,0,0,0
3.059125,4.370384,-10.500286,1.891618e-12,0,0,1.891618e-12,2.220446e-16,0,-2.331694e-18,0,0,0,0,2.220691e-16,-2.448246e-20,1.110468e-16,44.398426,1.480624e-16,1.480542e-16,0,0,0,0,0,0
3.106415,4.370384,-10.468629,1.891618e-12,0,0,1.891618e-12,2.220446e-16,2.220446e-16,-4.026987e-17,0,0,0,0,2.623145e-16,1.817747e-16,4.026987e-17,0,5.369316e-17,1.551613e-16,0,0,0,0,0,0
3.153705,4.370384,-10.433279,1.891618e-12,0,0,1.891618e-12,-4.440892e-16,0,3.886561e-17,0,0,0,0,3.375763e-18,-4.47465e-16,2.254204e-16,-49.9641,3.005605e-16,2.994416e-16,0,0,0,0,0,0
3.200996,4.370384,-10.392488,1.891618e-12,0,0,1.891618e-12,-3.330669e-16,2.220446e-16,1.5615e-17,0,0,0,0,2.224835e-16,-3.335058e-16,2.779947e-16,-46.610004,3.706595e-16,3.231268e-16,0,0,0,0,0,0
3.248286,4.370384,-10.346022,1.891618e-12,0,0,1.891618e-12,0,-2.220446e-16,-1.139616e-17,0,0,0,0,5.833613e-19,-2.22628e-16,1.116057e-16,42.06963,1.488076e-16,1.486135e-16,0,0,0,0,0,0
3.295577,4.370384,-10.293912,1.891618e-12,0,0,1.891618e-12,0,2.220446e-16,-4.878188e-18,0,0,0,0,2.221517e-16,-1.071192e-19,1.111294e-16,-43.742054,1.481726e-16,1.481369e-16,0,0,0,0,0,0
3.342867,4.370384,-10.23613,1.891618e-12,0,0,1.891618e-12,2.220446e-16,0,-5.960516e-19,0,0,0,0,2.220462e-16,-1.600016e-21,1.110239e-16,44.846199,1.480319e-16,1.480313e-16,0,0,0,0,0,0
1.49854,4.323093,-9.996664,1.891618e-12,0,0,1.891618e-12,-1.110223e-16,-1.110223e-16,-7.924351e-17,0,0,0,0,-3.177879e-17,-1.902658e-16,7.924351e-17,0,1.05658e-16,1.176899e-16,0,0,0,0,0,0
1.54583,4.323093,-10.08955,1.891618e-12,0,0,1.891618e-12,2.220446e-16,4.440892e-16,6.600973e-17,0,0,0,0,4.622305e-16,2.039033e-16,1.291636e-16,-60.367073,1.722181e-16,2.674848e-16,0,0,0,0,0,0
1.593121,4.323093,-10.178804,1.891618e-12,0,0,1.891618e-12,-1.110223e-16,2.220446e-16,-7.530779e-18,0,0,0,0,2.222148e-16,-1.111925e-16,1.667036e-16,-43.705402,2.222715e-16,1.960179e-16,0,0,0,0,0,0
1.640411,4.323093,-10.249995,1.891618e-12,0,0,1.891618e-12,-1.110223e-16,2.220446e-16,-5.809657e-17,0,0,0,0,2.318875e-16,-1.208652e-16,1.763763e-16,-35.384129,2.351684e-16,2.069968e-16,0,0,0,0,0,0
1.687701,4.323093,-10.309995,1.891618e-12,0,0,1.891618e-12,-2.220446e-16,-2.220446e-16,-3.669753e-17,0,0,0,0,-1.853471e-16,-2.587421e-16,3.669753e-17,0,4.893005e-17,1.539754e-16,0,0,0,0,0,0
1.734992,4.323093,-10.362364,1.891618e-12,0,0,1.891618e-12,-2.220446e-16,0,-1.184264e-17,0,0,0,0,6.298347e-19,-2.226744e-16,1.116521e-16,-41.955669,1.488695e-16,1.4866e-16,0,0,0,0,0,0
1.782282,4.323093,-10.407998,1.891618e-12,0,0,1.891618e-12,0,-1.110223e-16,-4.749777e-17,0,0,0,0,1.754722e-17,-1.285695e-16,7.305837e-17,24.724129,9.741116e-17,9.212085e-17,0,0,0,0,0,0
1.829573,4.323093,-10.449123,1.891618e-12,0,0,1.891618e-12,2.220446e-16,2.220446e-16,3.792716e-17,0,0,0,0,2.599717e-16,1.841174e-16,3.792716e-17,90,5.056954e-17,1.543722e-16,0,0,0,0,0,0
1.876863,4.323093,-10.486913,1.891618e-12,0,0,1.891618e-12,0,2.220446e-16,-4.487679e-17,0,0,0,0,2.307715e-16,-8.726928e-18,1.197492e-16,-33.995369,1.596656e-16,1.568376e-16,0,0,0,0,0,0
1.924154,4.323093,-10.520546,1.891618e-12,0,0,1.891618e-12,-2.220446e-16,0,6.895754e-18,0,0,0,0,2.139465e-19,-2.222586e-16,1.112362e-16,-46.777081,1.48315e-16,1.482437e-16,0,0,0,0,0,0
1.971444,4.323093,-10.548674,1.891618e-12,0,0,1.891618e-12,2.220446e-16,0,-9.135151e-18,0,0,0,0,2.224198e-16,-3.751959e-19,1.113975e-16,42.64809,1.4853e-16,1.484051e-16,0,0,0,0,0,0
2.018735,4.323093,-10.571888,1.891618e-12,0,0,1.891618e-12,0,-2.220446e-16,-4.130116e-17,0,0,0,0,7.433331e-18,-2.294779e-16,1.184556e-16,34.797203,1.579408e-16,1.555223e-16,0,0,0,0,0,0
2.066025,4.323093,-10.59152,1.891618e-12,0,0,1.891618e-12,-1.110223e-16,0,-7.44101e-18,0,0,0,0,4.964959e-19,-1.115188e-16,5.600764e-17,-41.18264,7.467686e-17,7.451191e-17,0,0,0,0,0,0
2.113316,4.323093,-10.607854,1.891618e-12,0,0,1.891618e-12,2.220446e-16,0,3.557074e-17,0,0,0,0,2.276037e-16,-5.559124e-18,1.165814e-16,53.882542,1.554419e-16,1.536224e-16,0,0,0,0,0,0
2.160606,4.323093,-10.620267,1.891618e-12,0,0,1.891618e-12,0,-1.110223e-16,5.51118e-17,0,0,0,0,2.271159e-17,-1.337339e-16,7.822274e-17,67.396576,1.04297e-16,9.76112e-17,0,0,0,0,0,0
2.207896,4.323093,-10.628553,1.891618e-12,0,0,1.891618e-12,-1.110223e-16,0,-3.150296e-18,0,0,0,0,8.931889e-20,-1.111116e-16,5.560047e-17,-43.375954,7.413396e-17,7.410421e-17,0,0,0,0,0,0
2.255187,4.323093,-10.635346,1.891618e-12,0,0,1.891618e-12,2.220446e-16,2.220446e-16,3.398818e-17,0,0,0,0,2.560328e-16,1.880564e-16,3.398818e-17,90,4.531758e-17,1.531439e-16,0,0,0,0,0,0
2.302477,4.323093,-10.644457,1.891618e-12,0,0,1.891618e-12,2.220446e-16,2.220446e-16,3.925438e-17,0,0,0,0,2.61299e-16,1.827902e-16,3.925438e-17,90,5.233918e-17,1.548139e-16,0,0,0,0,0,0
2.349768,4.323093,-10.655906,1.891618e-12,0,0,1.891618e-12,-1.110223e-16,-2.220446e-16,3.845755e-17,0,0,0,0,-9.90022e-17,-2.340647e-16,6.753126e-17,62.356907,9.004168e-17,1.356709e-16,0,0,0,0,0,0
2.397058,4.323093,-10.667661,1.891618e-12,0,0,1.891618e-12,2.220446e-16,-2.220446e-16,-1.332362e-17,0,0,0,0,2.22444e-16,-2.22444e-16,2.22444e-16,43.283062,2.96592e-16,2.568562e-16,0,0,0,0,0,0
2.444349,4.323093,-10.676292,1.891618e-12,0,0,1.891618e-12,2.220446e-16,0,-1.327621e-17,0,0,0,0,2.228356e-16,-7.909772e-19,1.118133e-16,41.590431,1.490844e-16,1.488214e-16,0,0,0,0,0,0
2.491639,4.323093,-10.679833,1.891618e-12,0,0,1.891618e-12,0,2.220446e-16,2.592198e-18,0,0,0,0,2.220749e-16,-3.025778e-20,1.110526e-16,-45.668762,1.480701e-16,1.4806e-16,0,0,0,0,0,0
2.53893,4.323093,-10.679322,1.891618e-12,0,0,1.891618e-12,-2.220446e-16,-1.110223e-16,4.172627e-17,0,0,0,0,-9.708873e-17,-2.359782e-16,6.944472e-17,-63.465611,9.259296e-17,1.369527e-16,0,0,0,0,0,0
2.58622,4.323093,-10.675616,1.891618e-12,0,0,1.891618e-12,-2.220446e-16,-1.110223e-16,1.826418e-17,0,0,0,0,-1.080949e-16,-2.24972e-16,5.843858e-17,-54.106071,7.791811e-17,1.299207e-16,0,0,0,0,0,0
2.633511,4.323093,-10.66809,1.891618e-12,0,0,1.891618e-12,-1.110223e-16,-1.110223e-16,1.098592e-17,0,0,0,0,-1.000364e-16,-1.220082e-16,1.098592e-17,90,1.464789e-17,7.509408e-17,0,0,0,0,0,0
2.680801,4.323093,-10.657059,1.891618e-12,0,0,1.891618e-12,-3.330669e-16,-1.110223e-16,1.010657e-17,0,0,0,0,-1.105632e-16,-3.33526e-16,1.114814e-16,-47.600704,1.486418e-16,1.961724e-16,0,0,0,0,0,0
2.728091,4.323093,-10.643405,1.891618e-12,0,0,1.891618e-12,-1.110223e-16,0,2.114169e-17,0,0,0,0,3.889683e-18,-1.14912e-16,5.940083e-17,-55.424789,7.920111e-17,7.793691e-17,0,0,0,0,0,0
2.775382,4.323093,-10.629412,1.891618e-12,0,0,1.891618e-12,0,0,-3.150584e-17,0,0,0,0,3.150584e-17,-3.150584e-17,3.150584e-17,0,4.200779e-17,3.637981e-17,0,0,0,0,0,0
2.822672,4.323093,-10.615852,1.891618e-12,0,0,1.891618e-12,0,-2.220446e-16,-1.39858e-17,0,0,0,0,8.774486e-19,-2.229221e-16,1.118997e-16,41.410053,1.491997e-16,1.48908e-16,0,0,0,0,0,0
2.869963,4.323093,-10.600731,1.891618e-12,0,0,1.891618e-12,2.220446e-16,2.220446e-16,5.764018e-19,0,0,0,0,2.22621e-16,2.214682e-16,5.764018e-19,90,7.685358e-19,1.480312e-16,0,0,0,0,0,0
2.917253,4.323093,-10.581462,1.891618e-12,0,0,1.891618e-12,0,0,7.403297e-18,0,0,0,0,7.403297e-18,-7.403297e-18,7.403297e-18,90,9.871063e-18,8.548592e-18,0,0,0,0,0,0
2.964544,4.323093,-10.557602,1.891618e-12,0,0,1.891618e-12,0,-2.220446e-16,-2.870792e-17,0,0,0,0,3.651566e-18,-2.256962e-16,1.146739e-16,37.751064,1.528985e-16,1.51696e-16,0,0,0,0,0,0
3.011834,4.323093,-10.530324,1.891618e-12,0,0,1.891618e-12,-2.220446e-16,-1.110223e-16,1.121925e-17,0,0,0,0,-1.098999e-16,-2.23167e-16,5.663356e-17,-50.713009,7.551141e-17,1.288504e-16,0,0,0,0,0,0
3.059125,4.323093,-10.50163,1.891618e-12,0,0,1.891618e-12,0,2.220446e-16,-5.759879e-17,0,0,0,0,2.360966e-16,-1.405196e-17,1.250743e-16,-31.289772,1.667657e-16,1.622846e-16,0,0,0,0,0,0
3.106415,4.323093,-10.471078,1.891618e-12,0,0,1.891618e-12,2.220446e-16,-1.110223e-16,-2.286445e-17,0,0,0,0,2.236069e-16,-1.125846e-16,1.680957e-16,41.091183,2.241276e-16,1.975967e-16,0,0,0,0,0,0
3.153705,4.323093,-10.436175,1.891618e-12,0,0,1.891618e-12,-2.220446e-16,-2.220446e-16,-3.375679e-17,0,0,0,0,-1.882878e-16,-2.558014e-16,3.375679e-17,0,4.500905e-17,1.530757e-16,0,0,0,0,0,0
3.200996,4.323093,-10.395173,1.891618e-12,0,0,1.891618e-12,2.220446e-16,0,2.674907e-17,0,0,0,0,2.252215e-16,-3.176928e-18,1.141992e-16,51.773167,1.522656e-16,1.512178e-16,0,0,0,0,0,0
3.248286,4.323093,-10.348114,1.891618e-12,0,0,1.891618e-12,2.220446e-16,4.440892e-16,3.164427e-17,0,0,0,0,4.485109e-16,2.176229e-16,1.15444e-16,-52.954472,1.539253e-16,2.589856e-16,0,0,0,0,0,0
3.295577,4.323093,-10.294832,1.891618e-12,0,0,1.891618e-12,2.220446e-16,-2.220446e-16,-7.777481e-18,0,0,0,0,2.221808e-16,-2.221808e-16,2.221808e-16,43.996971,2.96241e-16,2.565523e-16,0,0,0,0,0,0
3.342867,4.323093,-10.236446,1.891618e-12,0,0,1.891618e-12,-1.110223e-16,-1.110223e-16,1.70311e-17,0,0,0,0,-9.39912e-17,-1.280534e-16,1.70311e-17,90,2.270814e-17,7.658293e-17,0,0,0,0,0,0
1.49854,4.275803,-9.998414,1.891618e-12,0,0,1.891618e-12,-1.110223e-16,-1.110223e-16,-4.117031e-18,0,0,0,0,-1.069053e-16,-1.151393e-16,4.117031e-18,0,5.489375e-18,7.416738e-17,0,0,0,0,0,0
1.54583,4.275803,-10.09392,1.891618e-12,0,0,1.891618e-12,2.220446e-16,2.220446e-16,3.07586e-17,0,0,0,0,2.528032e-16,1.91286e-16,3.07586e-17,90,4.101146e-17,1.522309e-16,0,0,0,0,0,0
1.593121,4.275803,-10.182348,1.891618e-12,0,0,1.891618e-12,-2.220446e-16,-1.110223e-16,-5.88655e-17,0,0,0,0,-8.562217e-17,-2.474447e-16,8.091128e-17,-21.660078,1.078817e-16,1.451027e-16,0,0,0,0,0,0
1.640411,4.275803,-10.253724,1.891618e-12,0,0,1.891618e-12,0,-2.220446e-16,4.896438e-17,0,0,0,0,1.031797e-17,-2.323626e-16,1.213403e-16,56.899506,1.61787e-16,1.584597e-16,0,0,0,0,0,0
1.687701,4.275803,-10.315029,1.891618e-12,0,0,1.891618e-12,-3.330669e-16,2.220446e-16,-3.755328e-17,0,0,0,0,2.245736e-16,-3.355959e-16,2.800847e-16,-41.147339,3.734463e-16,3.255244e-16,0,0,0,0,0,0
1.734992,4.275803,-10.368113,1.891618e-12,0,0,1.891618e-12,2.220446e-16,0,-5.101461e-18,0,0,0,0,2.221618e-16,-1.17144e-19,1.111394e-16,43.684559,1.481859e-16,1.481469e-16,0,0,0,0,0,0
1.782282,4.275803,-10.413651,1.891618e-12,0,0,1.891618e-12,2.220446e-16,-1.110223e-16,-2.562557e-17,0,0,0,0,2.240047e-16,-1.129823e-16,1.684935e-16,40.626072,2.24658e-16,1.980479e-16,0,0,0,0,0,0
1.829573,4.275803,-10.453999,1.891618e-12,0,0,1.891618e-12,-2.220446e-16,-2.220446e-16,2.344195e-18,0,0,0,0,-2.197004e-16,-2.243888e-16,2.344195e-18,90,3.125594e-18,1.480545e-16,0,0,0,0,0,0
1.876863,4.275803,-10.490912,1.891618e-12,0,0,1.891618e-12,2.220446e-16,-1.110223e-16,-1.872462e-17,0,0,0,0,2.23094e-16,-1.120717e-16,1.675828e-16,41.79237,2.234438e-16,1.970149e-16,0,0,0,0,0,0
1.924154,4.275803,-10.524209,1.891618e-12,0,0,1.891618e-12,-2.220446e-16,-1.110223e-16,-4.747074e-17,0,0,0,0,-9.349265e-17,-2.395742e-16,7.30408e-17,-24.732185,9.738774e-17,1.394246e-16,0,0,0,0,0,0
1.971444,4.275803,-10.55296,1.891618e-12,0,0,1.891618e-12,2.220446e-16,0,2.33835e-19,0,0,0,0,2.220448e-16,-2.462513e-22,1.110226e-16,45.060337,1.480301e-16,1.4803e-16,0,0,0,0,0,0
2.018735,4.275803,-10.577357,1.891618e-12,0,0,1.891618e-12,2.220446e-16,0,-2.809433e-17,0,0,0,0,2.255441e-16,-3.4995e-18,1.145218e-16,37.899666,1.526957e-16,1.515427e-16,0,0,0,0,0,0
2.066025,4.275803,-10.598225,1.891618e-12,0,0,1.891618e-12,0,-1.110223e-16,-2.144519e-17,0,0,0,0,3.998379e-18,-1.150207e-16,5.950953e-17,34.438671,7.934604e-17,7.80474e-17,0,0,0,0,0,0
2.113316,4.275803,-10.615508,1.891618e-12,0,0,1.891618e-12,0,2.220446e-16,2.963155e-17,0,0,0,0,2.259309e-16,-3.886272e-18,1.149086e-16,-52.471878,1.532114e-16,1.519326e-16,0,0,0,0,0,0
2.160606,4.275803,-10.628116,1.891618e-12,0,0,1.891618e-12,2.220446e-16,0,-3.196513e-17,0,0,0,0,2.265546e-16,-4.510036e-18,1.155323e-16,36.969013,1.540431e-16,1.52562e-16,0,0,0,0,0,0
2.207896,4.275803,-10.635702,1.891618e-12,0,0,1.891618e-12,0,-1.110223e-16,3.950622e-17,0,0,0,0,1.262275e-17,-1.236451e-16,6.813391e-17,62.719364,9.084521e-17,8.69436e-17,0,0,0,0,0,0
2.255187,4.275803,-10.641512,1.891618e-12,0,0,1.891618e-12,-4.440892e-16,2.220446e-16,-2.990902e-17,0,0,0,0,2.233848e-16,-4.454294e-16,3.344071e-16,-42.434334,4.458761e-16,3.931696e-16,0,0,0,0,0,0
2.302477,4.275803,-10.649776,1.891618e-12,0,0,1.891618e-12,0,2.220446e-16,1.735452e-17,0,0,0,0,2.233928e-16,-1.348205e-18,1.123705e-16,-49.442165,1.498273e-16,1.4938e-16,0,0,0,0,0,0
2.349768,4.275803,-10.660917,1.891618e-12,0,0,1.891618e-12,2.220446e-16,-4.440892e-16,-1.014595e-17,0,0,0,0,2.221991e-16,-4.442437e-16,3.332214e-16,44.12759,4.442952e-16,3.918251e-16,0,0,0,0,0,0
2.397058,4.275803,-10.672652,1.891618e-12,0,0,1.891618e-12,-2.220446e-16,2.220446e-16,4.705396e-17,0,0,0,0,2.269755e-16,-2.269755e-16,2.269755e-16,-50.982334,3.02634e-16,2.620887e-16,0,0,0,0,0,0
2.444349,4.275803,-10.681278,1.891618e-12,0,0,1.891618e-12,-1.110223e-16,0,2.348468e-17,0,0,0,0,4.763374e-18,-1.157857e-16,6.027453e-17,-56.465698,8.036604e-17,7.882623e-17,0,0,0,0,0,0
2.491639,4.275803,-10.684926,1.891618e-12,0,0,1.891618e-12,-2.220446e-16,-1.110223e-16,-3.46288e-17,0,0,0,0,-1.011068e-16,-2.319601e-16,6.542661e-17,-29.02169,8.723549e-17,1.342888e-16,0,0,0,0,0,0
2.53893,4.275803,-10.684757,1.891618e-12,0,0,1.891618e-12,0,0,1.354579e-18,0,0,0,0,1.354579e-18,-1.354579e-18,1.354579e-18,90,1.806105e-18,1.564133e-18,0,0,0,0,0,0
2.58622,4.275803,-10.681437,1.891618e-12,0,0,1.891618e-12,-1.110223e-16,0,-1.752411e-17,0,0,0,0,2.700381e-18,-1.137227e-16,5.821153e-17,-36.239902,7.761538e-17,7.673109e-17,0,0,0,0,0,0
2.633511,4.275803,-10.674274,1.891618e-12,0,0,1.891618e-12,-1.110223e-16,0,1.236777e-17,0,0,0,0,1.361071e-18,-1.123834e-16,5.687222e-17,-51.280117,7.582963e-17,7.538004e-17,0,0,0,0,0,0
2.680801,4.275803,-10.663382,1.891618e-12,0,0,1.891618e-12,2.220446e-16,0,-1.623389e-17,0,0,0,0,2.232252e-16,-1.180598e-18,1.122029e-16,40.840527,1.496039e-16,1.492119e-16,0,0,0,0,0,0
2.728091,4.275803,-10.649823,1.891618e-12,0,0,1.891618e-12,-1.110223e-16,-1.110223e-16,3.436871e-17,0,0,0,0,-7.665359e-17,-1.45391e-16,3.436871e-17,90,4.582495e-17,8.398301e-17,0,0,0,0,0,0
2.775382,4.275803,-10.635789,1.891618e-12,0,0,1.891618e-12,-1.110223e-16,2.220446e-16,3.705996e-17,0,0,0,0,2.261184e-16,-1.150961e-16,1.706072e-16,-51.273014,2.274763e-16,2.004462e-16,0,0,0,0,0,0
2.822672,4.275803,-10.621749,1.891618e-12,0,0,1.891618e-12,0,2.220446e-16,4.356749e-17,0,0,0,0,2.30287e-16,-8.242436e-18,1.192647e-16,-55.713043,1.590196e-16,1.563446e-16,0,0,0,0,0,0
2.869963,4.275803,-10.605502,1.891618e-12,0,0,1.891618e-12,0,-1.110223e-16,-2.99999e-17,0,0,0,0,7.587831e-18,-1.186101e-16,6.309898e-17,30.805941,8.413198e-17,8.172021e-17,0,0,0,0,0,0
2.917253,4.275803,-10.58466,1.891618e-12,0,0,1.891618e-12,0,2.220446e-16,-1.698947e-17,0,0,0,0,2.23337e-16,-1.292407e-18,1.123147e-16,-40.64983,1.49753e-16,1.49324e-16,0,0,0,0,0,0
2.964544,4.275803,-10.559355,1.891618e-12,0,0,1.891618e-12,2.220446e-16,2.220446e-16,-3.202703e-17,0,0,0,0,2.540716e-16,1.900176e-16,3.202703e-17,0,4.27027e-17,1.525793e-16,0,0,0,0,0,0
3.011834,4.275803,-10.531238,1.891618e-12,0,0,1.891618e-12,4.440892e-16,0,4.210332e-17,0,0,0,0,4.480457e-16,-3.956492e-18,2.260011e-16,50.368378,3.013348e-16,3.000247e-16,0,0,0,0,0,0
3.059125,4.275803,-10.502656,1.891618e-12,0,0,1.891618e-12,2.220446e-16,2.220446e-16,-9.003829e-19,0,0,0,0,2.22945e-16,2.211442e-16,9.003829e-19,0,1.20051e-18,1.480334e-16,0,0,0,0,0,0
3.106415,4.275803,-10.472612,1.891618e-12,0,0,1.891618e-12,-2.220446e-16,0,1.742625e-17,0,0,0,0,1.359306e-18,-2.234039e-16,1.123816e-16,-49.460232,1.498421e-16,1.493911e-16,0,0,0,0,0,0
3.153705,4.275803,-10.437888,1.891618e-12,0,0,1.891618e-12,2.220446e-16,4.440892e-16,4.671459e-18,0,0,0,0,4.441875e-16,2.219464e-16,1.111205e-16,-46.2047,1.481607e-16,2.564518e-16,0,0,0,0,0,0
3.200996,4.275803,-10.396436,1.891618e-12,0,0,1.891618e-12,0,-2.220446e-16,-2.67677e-17,0,0,0,0,3.181293e-18,-2.252259e-16,1.142036e-16,38.22229,1.522715e-16,1.512222e-16,0,0,0,0,0,0
3.248286,4.275803,-10.348588,1.891618e-12,0,0,1.891618e-12,0,-1.110223e-16,-2.520042e-17,0,0,0,0,5.452354e-18,-1.164747e-16,6.09635e-17,32.791679,8.128467e-17,7.952954e-17,0,0,0,0,0,0
3.295577,4.275803,-10.29435,1.891618e-12,0,0,1.891618e-12,0,-1.110223e-16,5.325995e-17,0,0,0,0,2.14181e-17,-1.324404e-16,7.692925e-17,66.907166,1.025723e-16,9.623078e-17,0,0,0,0,0,0
3.342867,4.275803,-10.23523,1.891618e-12,0,0,1.891618e-12,2.220446e-16,2.220446e-16,6.518938e-17,0,0,0,0,2.87234e-16,1.568552e-16,6.518938e-17,90,8.691918e-17,1.660693e-16,0,0,0,0,0,0
1.49854,4.228512,-10.001357,1.891618e-12,0,0,1.891618e-12,2.220446e-16,-1.110223e-16,-9.139068e-17,0,0,0,0,2.454734e-16,-1.344511e-16,1.899622e-16,30.621391,2.53283e-16,2.224494e-16,0,0,0,0,0,0
1.54583,4.228512,-10.100916,1.891618e-12,0,0,1.891618e-12,2.220446e-16,-1.110223e-16,-2.927158e-17,0,0,0,0,2.245976e-16,-1.135753e-16,1.690864e-16,40.015476,2.254486e-16,1.987205e-16,0,0,0,0,0,0
1.593121,4.228512,-10.188266,1.891618e-12,0,0,1.891618e-12,2.220446e-16,0,-2.031337e-17,0,0,0,0,2.238876e-16,-1.843035e-18,1.128653e-16,39.815739,1.504871e-16,1.498766e-16,0,0,0,0,0,0
1.640411,4.228512,-10.257804,1.891618e-12,0,0,1.891618e-12,2.220446e-16,0,-8.389387e-18,0,0,0,0,2.223611e-16,-3.165203e-19,1.113388e-16,42.839333,1.484518e-16,1.483464e-16,0,0,0,0,0,0
1.687701,4.228512,-10.318961,1.891618e-12,0,0,1.891618e-12,-3.330669e-16,2.220446e-16,3.367855e-18,0,0,0,0,2.22065e-16,-3.330873e-16,2.775762e-16,-45.347595,3.701016e-16,3.226468e-16,0,0,0,0,0,0
1.734992,4.228512,-10.371964,1.891618e-12,0,0,1.891618e-12,0,-1.110223e-16,3.848047e-17,0,0,0,0,1.203316e-17,-1.230555e-16,6.754431e-17,62.364895,9.005908e-17,8.632803e-17,0,0,0,0,0,0
1.782282,4.228512,-10.417284,1.891618e-12,0,0,1.891618e-12,2.220446e-16,2.220446e-16,-3.361963e-18,0,0,0,0,2.254066e-16,2.186826e-16,3.361963e-18,0,4.482617e-18,1.480806e-16,0,0,0,0,0,0
1.829573,4.228512,-10.456987,1.891618e-12,0,0,1.891618e-12,0,4.440892e-16,2.696465e-17,0,0,0,0,4.457205e-16,-1.631274e-18,2.236759e-16,-48.46199,2.982345e-16,2.976922e-16,0,0,0,0,0,0
1.876863,4.228512,-10.493289,1.891618e-12,0,0,1.891618e-12,0,2.220446e-16,2.192248e-17,0,0,0,0,2.241883e-16,-2.143711e-18,1.13166e-16,-50.584969,1.50888e-16,1.501785e-16,0,0,0,0,0,0
1.924154,4.228512,-10.526582,1.891618e-12,0,0,1.891618e-12,0,-2.220446e-16,-6.012781e-17,0,0,0,0,1.523658e-17,-2.372812e-16,1.262589e-16,30.780386,1.683452e-16,1.635031e-16,0,0,0,0,0,0
1.971444,4.228512,-10.556096,1.891618e-12,0,0,1.891618e-12,2.220446e-16,-1.110223e-16,-2.598077e-17,0,0,0,0,2.24059e-16,-1.130367e-16,1.685479e-16,40.566402,2.247305e-16,1.981096e-16,0,0,0,0,0,0
2.018735,4.228512,-10.58173,1.891618e-12,0,0,1.891618e-12,0,2.220446e-16,2.261707e-17,0,0,0,0,2.243249e-16,-2.280317e-18,1.133026e-16,-50.757267,1.510702e-16,1.503158e-16,0,0,0,0,0,0
2.066025,4.228512,-10.603872,1.891618e-12,0,0,1.891618e-12,2.220446e-16,-1.110223e-16,2.394134e-18,0,0,0,0,2.220618e-16,-1.110395e-16,1.665507e-16,45.411823,2.220676e-16,1.958444e-16,0,0,0,0,0,0
2.113316,4.228512,-10.622137,1.891618e-12,0,0,1.891618e-12,2.220446e-16,0,-3.800235e-17,0,0,0,0,2.283685e-16,-6.323895e-18,1.173462e-16,35.552097,1.564616e-16,1.543968e-16,0,0,0,0,0,0
2.160606,4.228512,-10.635386,1.891618e-12,0,0,1.891618e-12,-1.110223e-16,0,2.782839e-18,0,0,0,0,6.970973e-20,-1.11092e-16,5.558086e-17,-46.434952,7.410781e-17,7.408459e-17,0,0,0,0,0,0
2.207896,4.228512,-10.643021,1.891618e-12,0,0,1.891618e-12,0,-1.110223e-16,-5.067882e-17,0,0,0,0,1.965421e-17,-1.306765e-16,7.516536e-17,23.802765,1.002205e-16,9.43539e-17,0,0,0,0,0,0
2.255187,4.228512,-10.648409,1.891618e-12,0,0,1.891618e-12,0,2.220446e-16,1.945446e-17,0,0,0,0,2.237362e-16,-1.691617e-18,1.127139e-16,-49.969521,1.502852e-16,1.497245e-16,0,0,0,0,0,0
2.302477,4.228512,-10.656027,1.891618e-12,0,0,1.891618e-12,2.220446e-16,2.220446e-16,4.143032e-17,0,0,0,0,2.634749e-16,1.806143e-16,4.143032e-17,90,5.524043e-17,1.555681e-16,0,0,0,0,0,0
2.349768,4.228512,-10.666823,1.891618e-12,0,0,1.891618e-12,4.440892e-16,-1.110223e-16,-4.953043e-18,0,0,0,0,4.441334e-16,-1.110665e-16,2.775999e-16,44.488827,3.701333e-16,3.39227e-16,0,0,0,0,0,0
2.397058,4.228512,-10.678245,1.891618e-12,0,0,1.891618e-12,2.220446e-16,-2.220446e-16,-5.233734e-18,0,0,0,0,2.221063e-16,-2.221063e-16,2.221063e-16,44.324875,2.961417e-16,2.564663e-16,0,0,0,0,0,0
2.444349,4.228512,-10.68645,1.891618e-12,0,0,1.891618e-12,-1.110223e-16,0,-4.23625e-17,0,0,0,0,1.431771e-17,-1.2534e-16,6.982886e-17,-26.325741,9.310514e-17,8.871852e-17,0,0,0,0,0,0
2.491639,4.228512,-10.689632,1.891618e-12,0,0,1.891618e-12,-4.440892e-16,2.220446e-16,1.536657e-17,0,0,0,0,2.223989e-16,-4.444435e-16,3.334212e-16,-46.320778,4.445616e-16,3.920516e-16,0,0,0,0,0,0
2.53893,4.228512,-10.689195,1.891618e-12,0,0,1.891618e-12,0,-1.110223e-16,1.504473e-17,0,0,0,0,2.002601e-18,-1.130249e-16,5.751376e-17,52.582062,7.6685e-17,7.602626e-17,0,0,0,0,0,0
2.58622,4.228512,-10.686203,1.891618e-12,0,0,1.891618e-12,2.220446e-16,0,1.452706e-17,0,0,0,0,2.22991e-16,-9.463852e-19,1.119687e-16,48.727345,1.492916e-16,1.489771e-16,0,0,0,0,0,0
2.633511,4.228512,-10.679879,1.891618e-12,0,0,1.891618e-12,-1.110223e-16,0,1.675461e-17,0,0,0,0,2.473372e-18,-1.134957e-16,5.798452e-17,-53.397545,7.731269e-17,7.650157e-17,0,0,0,0,0,0
2.680801,4.228512,-10.66975,1.891618e-12,0,0,1.891618e-12,0,2.220446e-16,-2.795834e-17,0,0,0,0,2.255108e-16,-3.466215e-18,1.144885e-16,-37.932655,1.526514e-16,1.515092e-16,0,0,0,0,0,0
2.728091,4.228512,-10.656715,1.891618e-12,0,0,1.891618e-12,-2.220446e-16,2.220446e-16,2.47757e-17,0,0,0,0,2.234226e-16,-2.234226e-16,2.234226e-16,-48.183361,2.978967e-16,2.579861e-16,0,0,0,0,0,0
2.775382,4.228512,-10.642779,1.891618e-12,0,0,1.891618e-12,-2.220446e-16,0,-2.17762e-17,0,0,0,0,2.115466e-18,-2.241601e-16,1.131378e-16,-39.451366,1.508504e-16,1.501502e-16,0,0,0,0,0,0
2.822672,4.228512,-10.628107,1.891618e-12,0,0,1.891618e-12,2.220446e-16,2.220446e-16,8.483168e-18,0,0,0,0,2.305278e-16,2.135614e-16,8.483168e-18,90,1.131089e-17,1.483535e-16,0,0,0,0,0,0
2.869963,4.228512,-10.610824,1.891618e-12,0,0,1.891618e-12,-1.110223e-16,2.220446e-16,3.775108e-17,0,0,0,0,2.262698e-16,-1.152476e-16,1.707587e-16,-51.386192,2.276783e-16,2.00618e-16,0,0,0,0,0,0
2.917253,4.228512,-10.588565,1.891618e-12,0,0,1.891618e-12,2.220446e-16,0,-4.780039e-17,0,0,0,0,2.318976e-16,-9.852959e-18,1.208753e-16,33.352909,1.61167e-16,1.579851e-16,0,0,0,0,0,0
2.964544,4.228512,-10.561773,1.891618e-12,0,0,1.891618e-12,-1.110223e-16,0,3.093195e-17,0,0,0,0,8.03626e-18,-1.190586e-16,6.354741e-17,-59.563725,8.472988e-17,8.218221e-17,0,0,0,0,0,0
3.011834,4.228512,-10.532619,1.891618e-12,0,0,1.891618e-12,-1.110223e-16,-1.110223e-16,-8.88706e-18,0,0,0,0,-1.021352e-16,-1.199094e-16,8.88706e-18,0,1.184941e-17,7.472287e-17,0,0,0,0,0,0
3.059125,4.228512,-10.50337,1.891618e-12,0,0,1.891618e-12,2.220446e-16,2.220446e-16,2.573079e-17,0,0,0,0,2.477754e-16,1.963138e-16,2.573079e-17,90,3.430771e-17,1.50982e-16,0,0,0,0,0,0
3.106415,4.228512,-10.473155,1.891618e-12,0,0,1.891618e-12,0,0,1.140031e-17,0,0,0,0,1.140031e-17,-1.140031e-17,1.140031e-17,90,1.520041e-17,1.316395e-17,0,0,0,0,0,0
3.153705,4.228512,-10.43836,1.891618e-12,0,0,1.891618e-12,-2.220446e-16,2.220446e-16,-9.836173e-18,0,0,0,0,2.222624e-16,-2.222624e-16,2.222624e-16,-43.731781,2.963498e-16,2.566465e-16,0,0,0,0,0,0
3.200996,4.228512,-10.396783,1.891618e-12,0,0,1.891618e-12,0,0,3.358949e-18,0,0,0,0,3.358949e-18,-3.358949e-18,3.358949e-18,90,4.478599e-18,3.878581e-18,0,0,0,0,0,0
3.248286,4.228512,-10.348593,1.891618e-12,0,0,1.891618e-12,2.220446e-16,2.220446e-16,-1.805374e-18,0,0,0,0,2.2385e-16,2.202392e-16,1.805374e-18,0,2.407165e-18,1.480444e-16,0,0,0,0,0,0
3.295577,4.228512,-10.293806,1.891618e-12,0,0,1.891618e-12,-2.220446e-16,0,2.828152e-17,0,0,0,0,3.545564e-18,-2.255902e-16,1.145679e-16,-52.14571,1.527572e-16,1.515891e-16,0,0,0,0,0,0
3.342867,4.228512,-10.233814,1.891618e-12,0,0,1.891618e-12,-1.110223e-16,0,-8.133325e-18,0,0,0,0,5.92671e-19,-1.11615e-16,5.610382e-17,-40.832253,7.48051e-17,7.460832e-17,0,0,0,0,0,0
1.49854,4.181222,-10.005299,1.891618e-12,0,0,1.891618e-12,2.220446e-16,2.220446e-16,-2.522267e-17,0,0,0,0,2.472673e-16,1.968219e-16,2.522267e-17,0,3.363023e-17,1.508676e-16,0,0,0,0,0,0
1.54583,4.181222,-10.107137,1.891618e-12,0,0,1.891618e-12,0,-2.220446e-16,6.239791e-17,0,0,0,0,1.63333e-17,-2.383779e-16,1.273556e-16,59.668655,1.698075e-16,1.646333e-16,0,0,0,0,0,0
1.593121,4.181222,-10.19404,1.891618e-12,0,0,1.891618e-12,2.220446e-16,0,5.5871e-17,0,0,0,0,2.353104e-16,-1.326575e-17,1.242881e-16,58.356712,1.657174e-16,1.614772e-16,0,0,0,0,0,0
1.640411,4.181222,-10.262809,1.891618e-12,0,0,1.891618e-12,2.220446e-16,-1.110223e-16,-4.49984e-17,0,0,0,0,2.280169e-16,-1.169946e-16,1.725058e-16,37.439701,2.300077e-16,2.026011e-16,0,0,0,0,0,0
1.687701,4.181222,-10.32284,1.891618e-12,0,0,1.891618e-12,-2.220446e-16,0,1.226854e-17,0,0,0,0,6.758117e-19,-2.227204e-16,1.116981e-16,-48.152946,1.489308e-16,1.487061e-16,0,0,0,0,0,0
1.734992,4.181222,-10.37516,1.891618e-12,0,0,1.891618e-12,0,-1.110223e-16,-4.141555e-17,0,0,0,0,1.374732e-17,-1.247696e-16,6.925847e-17,26.637127,9.234463e-17,8.812036e-17,0,0,0,0,0,0
1.782282,4.181222,-10.419869,1.891618e-12,0,0,1.891618e-12,2.220446e-16,2.220446e-16,6.687668e-18,0,0,0,0,2.287323e-16,2.153569e-16,6.687668e-18,90,8.916891e-18,1.48231e-16,0,0,0,0,0,0
1.829573,4.181222,-10.458814,1.891618e-12,0,0,1.891618e-12,2.220446e-16,-1.110223e-16,-1.854333e-17,0,0,0,0,2.230738e-16,-1.120515e-16,1.675627e-16,41.823174,2.234169e-16,1.969921e-16,0,0,0,0,0,0
1.876863,4.181222,-10.494511,1.891618e-12,0,0,1.891618e-12,-4.440892e-16,-1.110223e-16,-1.056181e-17,0,0,0,0,-1.106877e-16,-4.444238e-16,1.66868e-16,-43.185535,2.224907e-16,2.671429e-16,0,0,0,0,0,0
1.924154,4.181222,-10.527794,1.891618e-12,0,0,1.891618e-12,-2.220446e-16,2.220446e-16,4.376917e-17,0,0,0,0,2.263174e-16,-2.263174e-16,2.263174e-16,-50.575558,3.017565e-16,2.613288e-16,0,0,0,0,0,0
1.971444,4.181222,-10.557961,1.891618e-12,0,0,1.891618e-12,2.220446e-16,2.220446e-16,5.722738e-17,0,0,0,0,2.79272e-16,1.648172e-16,5.722738e-17,90,7.630318e-17,1.621093e-16,0,0,0,0,0,0
2.018735,4.181222,-10.584595,1.891618e-12,0,0,1.891618e-12,2.220446e-16,-1.110223e-16,-1.062527e-17,0,0,0,0,2.223832e-16,-1.113609e-16,1.668721e-16,43.174664,2.224961e-16,1.962089e-16,0,0,0,0,0,0
2.066025,4.181222,-10.607734,1.891618e-12,0,0,1.891618e-12,0,2.220446e-16,-2.311684e-17,0,0,0,0,2.244257e-16,-2.381137e-18,1.134034e-16,-39.119022,1.512046e-16,1.504172e-16,0,0,0,0,0,0
2.113316,4.181222,-10.626804,1.891618e-12,0,0,1.891618e-12,0,-2.220446e-16,-2.352134e-17,0,0,0,0,2.464283e-18,-2.245089e-16,1.134866e-16,39.019058,1.513154e-16,1.505007e-16,0,0,0,0,0,0
2.160606,4.181222,-10.640769,1.891618e-12,0,0,1.891618e-12,0,2.220446e-16,-2.32675e-17,0,0,0,0,2.244566e-16,-2.411943e-18,1.134342e-16,-39.081772,1.512457e-16,1.504481e-16,0,0,0,0,0,0
2.207896,4.181222,-10.648804,1.891618e-12,0,0,1.891618e-12,2.220446e-16,-1.110223e-16,-1.245142e-17,0,0,0,0,2.225094e-16,-1.114871e-16,1.669983e-16,42.862022,2.226644e-16,1.96352e-16,0,0,0,0,0,0
2.255187,4.181222,-10.654065,1.891618e-12,0,0,1.891618e-12,2.220446e-16,-1.110223e-16,2.209532e-17,0,0,0,0,2.23504e-16,-1.124817e-16,1.679928e-16,48.778873,2.239905e-16,1.9748e-16,0,0,0,0,0,0
2.302477,4.181222,-10.661234,1.891618e-12,0,0,1.891618e-12,2.220446e-16,-1.110223e-16,-4.092524e-18,0,0,0,0,2.220949e-16,-1.110726e-16,1.665837e-16,44.296127,2.221117e-16,1.958819e-16,0,0,0,0,0,0
2.349768,4.181222,-10.671356,1.891618e-12,0,0,1.891618e-12,0,2.220446e-16,-4.533746e-17,0,0,0,0,2.309449e-16,-8.900329e-18,1.199226e-16,-33.893341,1.598968e-16,1.570142e-16,0,0,0,0,0,0
2.397058,4.181222,-10.681977,1.891618e-12,0,0,1.891618e-12,2.220446e-16,2.220446e-16,9.447962e-18,0,0,0,0,2.314926e-16,2.125966e-16,9.447962e-18,90,1.259728e-17,1.484312e-16,0,0,0,0,0,0
2.444349,4.181222,-10.689221,1.891618e-12,0,0,1.891618e-12,-1.110223e-16,-1.110223e-16,-1.741685e-17,0,0,0,0,-9.360546e-17,-1.284392e-16,1.741685e-17,0,2.322246e-17,7.669852e-17,0,0,0,0,0,0
2.491639,4.181222,-10.691343,1.891618e-12,0,0,1.891618e-12,2.220446e-16,-2.220446e-16,-2.845932e-18,0,0,0,0,2.220628e-16,-2.220628e-16,2.220628e-16,44.632843,2.960838e-16,2.564161e-16,0,0,0,0,0,0
2.53893,4.181222,-10.690241,1.891618e-12,0,0,1.891618e-12,-2.220446e-16,-1.110223e-16,2.252377e-17,0,0,0,0,-1.066268e-16,-2.264401e-16,5.990666e-17,-56.04248,7.987555e-17,1.308091e-16,0,0,0,0,0,0
2.58622,4.181222,-10.687473,1.891618e-12,0,0,1.891618e-12,-1.110223e-16,-2.220446e-16,5.243733e-17,0,0,0,0,-9.017141e-17,-2.428955e-16,7.636205e-17,66.684479,1.018161e-16,1.417774e-16,0,0,0,0,0,0
2.633511,4.181222,-10.682046,1.891618e-12,0,0,1.891618e-12,-2.220446e-16,-1.110223e-16,-1.986383e-17,0,0,0,0,-1.075753e-16,-2.254916e-16,5.895812e-17,-35.155506,7.861082e-17,1.302332e-16,0,0,0,0,0,0
2.680801,4.181222,-10.673062,1.891618e-12,0,0,1.891618e-12,2.220446e-16,-2.220446e-16,7.037476e-18,0,0,0,0,2.221561e-16,-2.221561e-16,2.221561e-16,45.907661,2.962081e-16,2.565238e-16,0,0,0,0,0,0
2.728091,4.181222,-10.660972,1.891618e-12,0,0,1.891618e-12,2.220446e-16,0,1.266142e-17,0,0,0,0,2.227642e-16,-7.196469e-19,1.117419e-16,48.253063,1.489893e-16,1.4875e-16,0,0,0,0,0,0
2.775382,4.181222,-10.647393,1.891618e-12,0,0,1.891618e-12,2.220446e-16,-2.220446e-16,-1.424872e-17,0,0,0,0,2.225013e-16,-2.225013e-16,2.225013e-16,43.164165,2.966684e-16,2.569224e-16,0,0,0,0,0,0
2.822672,4.181222,-10.632607,1.891618e-12,0,0,1.891618e-12,-1.110223e-16,-1.110223e-16,-2.456197e-17,0,0,0,0,-8.646033e-17,-1.355843e-16,2.456197e-17,0,3.274929e-17,7.926278e-17,0,0,0,0,0,0
2.869963,4.181222,-10.614918,1.891618e-12,0,0,1.891618e-12,0,0,1.341089e-17,0,0,0,0,1.341089e-17,-1.341089e-17,1.341089e-17,90,1.788118e-17,1.548556e-17,0,0,0,0,0,0
2.917253,4.181222,-10.592091,1.891618e-12,0,0,1.891618e-12,-1.110223e-16,2.220446e-16,-1.086299e-17,0,0,0,0,2.223985e-16,-1.113762e-16,1.668874e-16,-43.133938,2.225165e-16,1.962263e-16,0,0,0,0,0,0
2.964544,4.181222,-10.564389,1.891618e-12,0,0,1.891618e-12,2.220446e-16,0,-1.919222e-17,0,0,0,0,2.236913e-16,-1.64665e-18,1.126689e-16,40.096157,1.502253e-16,1.496794e-16,0,0,0,0,0,0
3.011834,4.181222,-10.534279,1.891618e-12,0,0,1.891618e-12,-1.110223e-16,0,-2.20021e-17,0,0,0,0,4.201328e-18,-1.152236e-16,5.971248e-17,-34.189438,7.961664e-17,7.82538e-17,0,0,0,0,0,0
3.059125,4.181222,-10.503926,1.891618e-12,0,0,1.891618e-12,0,0,5.734016e-18,0,0,0,0,5.734016e-18,-5.734016e-18,5.734016e-18,90,7.645354e-18,6.621071e-18,0,0,0,0,0,0
3.106415,4.181222,-10.472846,1.891618e-12,0,0,1.891618e-12,2.220446e-16,-1.110223e-16,3.301517e-17,0,0,0,0,2.252857e-16,-1.142634e-16,1.697745e-16,50.606731,2.26366e-16,1.995012e-16,0,0,0,0,0,0
3.153705,4.181222,-10.437786,1.891618e-12,0,0,1.891618e-12,-2.220446e-16,-1.110223e-16,4.584897e-19,0,0,0,0,-1.110204e-16,-2.220465e-16,5.551304e-17,-45.23661,7.401739e-17,1.281986e-16,0,0,0,0,0,0
3.200996,4.181222,-10.396419,1.891618e-12,0,0,1.891618e-12,0,0,-1.512072e-17,0,0,0,0,1.512072e-17,-1.512072e-17,1.512072e-17,0,2.016097e-17,1.745991e-17,0,0,0,0,0,0
3.248286,4.181222,-10.348174,1.891618e-12,0,0,1.891618e-12,2.220446e-16,-1.110223e-16,-1.484732e-17,0,0,0,0,2.227052e-16,-1.116829e-16,1.67194e-16,42.452625,2.229253e-16,1.96574e-16,0,0,0,0,0,0
3.295577,4.181222,-10.293023,1.891618e-12,0,0,1.891618e-12,0,0,1.77104e-19,0,0,0,0,1.77104e-19,-1.77104e-19,1.77104e-19,90,2.361387e-19,2.045021e-19,0,0,0,0,0,0
3.342867,4.181222,-10.231783,1.891618e-12,0,0,1.891618e-12,0,2.220446e-16,7.179363e-17,0,0,0,0,2.432353e-16,-2.119069e-17,1.32213e-16,-61.444557,1.76284e-16,1.696621e-16,0,0,0,0,0,0
1.49854,4.133931,-10.011328,1.891618e-12,0,0,1.891618e-12,0,2.220446e-16,-4.883206e-17,0,0,0,0,2.323092e-16,-1.026464e-17,1.212869e-16,-33.129089,1.617159e-16,1.584053e-16,0,0,0,0,0,0
1.54583,4.133931,-10.113155,1.891618e-12,0,0,1.891618e-12,0,-1.110223e-16,1.435555e-17,0,0,0,0,1.826181e-18,-1.128485e-16,5.733733e-17,52.249702,7.644978e-17,7.584838e-17,0,0,0,0,0,0
1.593121,4.133931,-10.200102,1.891618e-12,0,0,1.891618e-12,-1.110223e-16,2.220446e-16,-2.458267e-17,0,0,0,0,2.238492e-16,-1.128269e-16,1.68338e-16,-40.801491,2.244507e-16,1.978715e-16,0,0,0,0,0,0
1.640411,4.133931,-10.268587,1.891618e-12,0,0,1.891618e-12,-1.110223e-16,2.220446e-16,9.95255e-19,0,0,0,0,2.220476e-16,-1.110253e-16,1.665364e-16,-45.171207,2.220486e-16,1.958283e-16,0,0,0,0,0,0
1.687701,4.133931,-10.326948,1.891618e-12,0,0,1.891618e-12,2.220446e-16,-2.220446e-16,1.214857e-17,0,0,0,0,2.223767e-16,-2.223767e-16,2.223767e-16,46.56583,2.965023e-16,2.567785e-16,0,0,0,0,0,0
1.734992,4.133931,-10.378051,1.891618e-12,0,0,1.891618e-12,0,2.220446e-16,4.653907e-18,0,0,0,0,2.221421e-16,-9.749996e-20,1.111198e-16,-46.20018,1.481597e-16,1.481272e-16,0,0,0,0,0,0
1.782282,4.133931,-10.421783,1.891618e-12,0,0,1.891618e-12,2.220446e-16,-1.110223e-16,-1.926121e-18,0,0,0,0,2.220557e-16,-1.110334e-16,1.665446e-16,44.668674,2.220595e-16,1.958376e-16,0,0,0,0,0,0
1.829573,4.133931,-10.459734,1.891618e-12,0,0,1.891618e-12,2.220446e-16,-4.440892e-16,2.575984e-17,0,0,0,0,2.230393e-16,-4.450839e-16,3.340616e-16,47.211266,4.454155e-16,3.927778e-16,0,0,0,0,0,0
1.876863,4.133931,-10.494664,1.891618e-12,0,0,1.891618e-12,2.220446e-16,2.220446e-16,3.604525e-17,0,0,0,0,2.580899e-16,1.859994e-16,3.604525e-17,90,4.806034e-17,1.537698e-16,0,0,0,0,0,0
1.924154,4.133931,-10.527601,1.891618e-12,0,0,1.891618e-12,2.220446e-16,-2.220446e-16,-6.814798e-18,0,0,0,0,2.221492e-16,-2.221492e-16,2.221492e-16,44.12104,2.961989e-16,2.565157e-16,0,0,0,0,0,0
1.971444,4.133931,-10.557937,1.891618e-12,0,0,1.891618e-12,0,-4.440892e-16,2.027539e-18,0,0,0,0,9.256763e-21,-4.440985e-16,2.220539e-16,45.261581,2.960718e-16,2.960687e-16,0,0,0,0,0,0
2.018735,4.133931,-10.585135,1.891618e-12,0,0,1.891618e-12,-1.110223e-16,-1.110223e-16,-4.46195e-18,0,0,0,0,-1.065604e-16,-1.154842e-16,4.46195e-18,0,5.949267e-18,7.419398e-17,0,0,0,0,0,0
2.066025,4.133931,-10.608813,1.891618e-12,0,0,1.891618e-12,0,-1.110223e-16,2.843803e-17,0,0,0,0,6.860393e-18,-1.178827e-16,6.237154e-17,58.562897,8.316206e-17,8.097219e-17,0,0,0,0,0,0
2.113316,4.133931,-10.628344,1.891618e-12,0,0,1.891618e-12,2.220446e-16,2.220446e-16,8.197106e-18,0,0,0,0,2.302417e-16,2.138475e-16,8.197106e-18,90,1.092947e-17,1.48332e-16,0,0,0,0,0,0
2.160606,4.133931,-10.64286,1.891618e-12,0,0,1.891618e-12,-1.110223e-16,-1.110223e-16,2.291247e-17,0,0,0,0,-8.810983e-17,-1.339348e-16,2.291247e-17,90,3.054996e-17,7.860138e-17,0,0,0,0,0,0
2.207896,4.133931,-10.651407,1.891618e-12,0,0,1.891618e-12,2.220446e-16,2.220446e-16,8.557649e-18,0,0,0,0,2.306023e-16,2.13487e-16,8.557649e-18,90,1.14102e-17,1.483592e-16,0,0,0,0,0,0
2.255187,4.133931,-10.656853,1.891618e-12,0,0,1.891618e-12,2.220446e-16,0,2.813913e-17,0,0,0,0,2.255551e-16,-3.510498e-18,1.145328e-16,52.111195,1.527104e-16,1.515538e-16,0,0,0,0,0,0
2.302477,4.133931,-10.66393,1.891618e-12,0,0,1.891618e-12,-1.110223e-16,-1.110223e-16,4.601834e-18,0,0,0,0,-1.064205e-16,-1.156241e-16,4.601834e-18,90,6.135778e-18,7.420537e-17,0,0,0,0,0,0
2.349768,4.133931,-10.673335,1.891618e-12,0,0,1.891618e-12,2.220446e-16,2.220446e-16,2.823331e-17,0,0,0,0,2.502779e-16,1.938113e-16,2.823331e-17,90,3.764441e-17,1.515771e-16,0,0,0,0,0,0
2.397058,4.133931,-10.682906,1.891618e-12,0,0,1.891618e-12,2.220446e-16,2.220446e-16,-2.398655e-17,0,0,0,0,2.460311e-16,1.980581e-16,2.398655e-17,0,3.198206e-17,1.505986e-16,0,0,0,0,0,0
2.444349,4.133931,-10.689031,1.891618e-12,0,0,1.891618e-12,-4.440892e-16,0,3.595858e-18,0,0,0,0,2.91143e-20,-4.441183e-16,2.220737e-16,-45.463894,2.960983e-16,2.960886e-16,0,0,0,0,0,0
2.491639,4.133931,-10.690073,1.891618e-12,0,0,1.891618e-12,-1.110223e-16,0,-1.239008e-17,0,0,0,0,1.365926e-18,-1.123882e-16,5.687708e-17,-38.708912,7.58361e-17,7.538492e-17,0,0,0,0,0,0
2.53893,4.133931,-10.688198,1.891618e-12,0,0,1.891618e-12,0,-2.220446e-16,6.27665e-18,0,0,0,0,1.772838e-19,-2.222219e-16,1.111996e-16,46.617886,1.482661e-16,1.482071e-16,0,0,0,0,0,0
2.58622,4.133931,-10.685463,1.891618e-12,0,0,1.891618e-12,2.220446e-16,0,1.423272e-17,0,0,0,0,2.229532e-16,-9.085784e-19,1.119309e-16,48.652649,1.492412e-16,1.489392e-16,0,0,0,0,0,0
2.633511,4.133931,-10.680698,1.891618e-12,0,0,1.891618e-12,-2.220446e-16,0,-3.607677e-17,0,0,0,0,5.714518e-18,-2.277591e-16,1.167368e-16,-35.999199,1.556491e-16,1.537797e-16,0,0,0,0,0,0
2.680801,4.133931,-10.672687,1.891618e-12,0,0,1.891618e-12,2.220446e-16,2.220446e-16,-6.668369e-18,0,0,0,0,2.28713e-16,2.153762e-16,6.668369e-18,0,8.891158e-18,1.482299e-16,0,0,0,0,0,0
2.728091,4.133931,-10.661504,1.891618e-12,0,0,1.891618e-12,2.220446e-16,-1.110223e-16,-1.702003e-17,0,0,0,0,2.229121e-16,-1.118898e-16,1.674009e-16,42.082264,2.232013e-16,1.968087e-16,0,0,0,0,0,0
2.775382,4.133931,-10.648376,1.891618e-12,0,0,1.891618e-12,-1.110223e-16,-2.220446e-16,-2.047315e-17,0,0,0,0,-1.073673e-16,-2.256996e-16,5.916619e-17,34.87772,7.888825e-17,1.30359e-16,0,0,0,0,0,0
2.822672,4.133931,-10.633894,1.891618e-12,0,0,1.891618e-12,0,-1.110223e-16,-1.740642e-17,0,0,0,0,2.66506e-18,-1.136874e-16,5.817621e-17,36.295166,7.756828e-17,7.669537e-17,0,0,0,0,0,0
2.869963,4.133931,-10.616521,1.891618e-12,0,0,1.891618e-12,0,2.220446e-16,-2.312434e-17,0,0,0,0,2.244273e-16,-2.382665e-18,1.13405e-16,-39.117168,1.512066e-16,1.504187e-16,0,0,0,0,0,0
2.917253,4.133931,-10.594059,1.891618e-12,0,0,1.891618e-12,0,-1.110223e-16,5.629643e-18,0,0,0,0,2.847338e-19,-1.11307e-16,5.579589e-17,47.895416,7.439451e-17,7.429978e-17,0,0,0,0,0,0
2.964544,4.133931,-10.566264,1.891618e-12,0,0,1.891618e-12,2.220446e-16,-1.110223e-16,3.720827e-17,0,0,0,0,2.261507e-16,-1.151284e-16,1.706395e-16,51.297318,2.275194e-16,2.004828e-16,0,0,0,0,0,0
3.011834,4.133931,-10.535511,1.891618e-12,0,0,1.891618e-12,0,0,1.728117e-17,0,0,0,0,1.728117e-17,-1.728117e-17,1.728117e-17,90,2.304156e-17,1.995457e-17,0,0,0,0,0,0
3.059125,4.133931,-10.503925,1.891618e-12,0,0,1.891618e-12,2.220446e-16,-1.110223e-16,-5.942906e-18,0,0,0,0,2.221506e-16,-1.111283e-16,1.666395e-16,43.978107,2.22186e-16,1.959451e-16,0,0,0,0,0,0
3.106415,4.133931,-10.471723,1.891618e-12,0,0,1.891618e-12,2.220446e-16,0,3.773776e-18,0,0,0,0,2.221087e-16,-6.411897e-20,1.110864e-16,45.9734,1.481152e-16,1.480939e-16,0,0,0,0,0,0
3.153705,4.133931,-10.436292,1.891618e-12,0,0,1.891618e-12,2.220446e-16,0,-9.073411e-18,0,0,0,0,2.224148e-16,-3.701499e-19,1.113925e-16,42.663914,1.485233e-16,1.484e-16,0,0,0,0,0,0
3.200996,4.133931,-10.395205,1.891618e-12,0,0,1.891618e-12,0,0,2.55075e-18,0,0,0,0,2.55075e-18,-2.55075e-18,2.55075e-18,90,3.401e-18,2.945352e-18,0,0,0,0,0,0
3.248286,4.133931,-10.346907,1.891618e-12,0,0,1.891618e-12,2.220446e-16,2.220446e-16,-1.319487e-17,0,0,0,0,2.352395e-16,2.088497e-16,1.319487e-17,0,1.759316e-17,1.488118e-16,0,0,0,0,0,0
3.295577,4.133931,-10.29139,1.891618e-12,0,0,1.891618e-12,-3.330669e-16,-1.110223e-16,4.582549e-17,0,0,0,0,-1.019366e-16,-3.421526e-16,1.20108e-16,-56.21442,1.60144e-16,2.028482e-16,0,0,0,0,0,0
3.342867,4.133931,-10.228535,1.891618e-12,0,0,1.891618e-12,0,2.220446e-16,1.075835e-16,0,0,0,0,2.656191e-16,-4.357449e-17,1.545968e-16,-67.049393,2.061291e-16,1.932488e-16,0,0,0,0,0,0
1.451249,4.086641,-9.926778,1.891618e-12,0,0,1.891618e-12,-6.661338e-16,2.220446e-16,1.559772e-16,0,0,0,0,2.486401e-16,-6.927293e-16,4.706847e-16,-54.676388,6.275796e-16,5.632983e-16,0,0,0,0,0,0
1.49854,4.086641,-10.018806,1.891618e-12,0,0,1.891618e-12,-2.220446e-16,2.220446e-16,2.518612e-17,0,0,0,0,2.234684e-16,-2.234684e-16,2.234684e-16,-48.235649,2.979579e-16,2.580391e-16,0,0,0,0,0,0
1.54583,4.086641,-10.118884,1.891618e-12,0,0,1.891618e-12,-1.110223e-16,2.220446e-16,-4.097103e-17,0,0,0,0,2.270105e-16,-1.159882e-16,1.714993e-16,-38.089214,2.286658e-16,2.014586e-16,0,0,0,0,0,0
1.593121,4.086641,-10.205747,1.891618e-12,0,0,1.891618e-12,-1.110223e-16,2.220446e-16,1.572543e-17,0,0,0,0,2.227854e-16,-1.117631e-16,1.672743e-16,-47.697166,2.230324e-16,1.96665e-16,0,0,0,0,0,0
1.640411,4.086641,-10.273348,1.891618e-12,0,0,1.891618e-12,0,-1.110223e-16,1.412331e-17,0,0,0,0,1.768477e-18,-1.127908e-16,5.727963e-17,52.137253,7.637284e-17,7.579023e-17,0,0,0,0,0,0
1.687701,4.086641,-10.330846,1.891618e-12,0,0,1.891618e-12,0,2.220446e-16,1.32514e-17,0,0,0,0,2.228326e-16,-7.880337e-19,1.118103e-16,-48.403255,1.490804e-16,1.488185e-16,0,0,0,0,0,0
1.734992,4.086641,-10.380831,1.891618e-12,0,0,1.891618e-12,0,-4.440892e-16,4.157453e-17,0,0,0,0,3.858579e-18,-4.479478e-16,2.259032e-16,50.302494,3.012043e-16,2.999263e-16,0,0,0,0,0,0
1.782282,4.086641,-10.423462,1.891618e-12,0,0,1.891618e-12,2.220446e-16,4.440892e-16,2.991094e-17,0,0,0,0,4.480478e-16,2.18086e-16,1.149809e-16,-52.539131,1.533079e-16,2.587108e-16,0,0,0,0,0,0
1.829573,4.086641,-10.46049,1.891618e-12,0,0,1.891618e-12,-2.220446e-16,-1.110223e-16,-2.047767e-17,0,0,0,0,-1.073657e-16,-2.257012e-16,5.916775e-17,-34.875668,7.889034e-17,1.303599e-16,0,0,0,0,0,0
1.876863,4.086641,-10.494538,1.891618e-12,0,0,1.891618e-12,0,0,2.124791e-17,0,0,0,0,2.124791e-17,-2.124791e-17,2.124791e-17,90,2.833054e-17,2.453497e-17,0,0,0,0,0,0
1.924154,4.086641,-10.526911,1.891618e-12,0,0,1.891618e-12,0,0,-5.113866e-18,0,0,0,0,5.113866e-18,-5.113866e-18,5.113866e-18,0,6.818488e-18,5.904984e-18,0,0,0,0,0,0
1.971444,4.086641,-10.556969,1.891618e-12,0,0,1.891618e-12,-2.220446e-16,0,-5.180228e-19,0,0,0,0,1.208524e-21,-2.220458e-16,1.110235e-16,-44.866333,1.480313e-16,1.480309e-16,0,0,0,0,0,0
2.018735,4.086641,-10.583997,1.891618e-12,0,0,1.891618e-12,-1.110223e-16,0,-5.676149e-18,0,0,0,0,2.894453e-19,-1.113117e-16,5.58006e-17,-42.08083,7.440079e-17,7.43045e-17,0,0,0,0,0,0
2.066025,4.086641,-10.607431,1.891618e-12,0,0,1.891618e-12,-1.110223e-16,0,-3.075188e-17,0,0,0,0,7.948804e-18,-1.189711e-16,6.345995e-17,-30.507288,8.461327e-17,8.209205e-17,0,0,0,0,0,0
2.113316,4.086641,-10.626805,1.891618e-12,0,0,1.891618e-12,2.220446e-16,0,1.769098e-17,0,0,0,0,2.234453e-16,-1.40066e-18,1.12423e-16,49.526875,1.498973e-16,1.494326e-16,0,0,0,0,0,0
2.160606,4.086641,-10.641246,1.891618e-12,0,0,1.891618e-12,-1.110223e-16,-1.110223e-16,2.542923e-17,0,0,0,0,-8.559308e-17,-1.364515e-16,2.542923e-17,90,3.390564e-17,7.96266e-17,0,0,0,0,0,0
2.207896,4.086641,-10.650406,1.891618e-12,0,0,1.891618e-12,2.220446e-16,-1.110223e-16,2.51444e-17,0,0,0,0,2.239321e-16,-1.129098e-16,1.68421e-16,49.293034,2.245613e-16,1.979656e-16,0,0,0,0,0,0
2.255187,4.086641,-10.656694,1.891618e-12,0,0,1.891618e-12,4.440892e-16,2.220446e-16,-7.995071e-18,0,0,0,0,4.443767e-16,2.217571e-16,1.113098e-16,42.940529,1.484131e-16,2.565612e-16,0,0,0,0,0,0
2.302477,4.086641,-10.664105,1.891618e-12,0,0,1.891618e-12,-1.110223e-16,-1.110223e-16,1.396696e-17,0,0,0,0,-9.705534e-17,-1.249893e-16,1.396696e-17,90,1.862262e-17,7.575158e-17,0,0,0,0,0,0
2.349768,4.086641,-10.673055,1.891618e-12,0,0,1.891618e-12,-4.440892e-16,0,2.883989e-17,0,0,0,0,1.865078e-18,-4.459543e-16,2.239097e-16,-48.700169,2.985462e-16,2.979265e-16,0,0,0,0,0,0
2.397058,4.086641,-10.681921,1.891618e-12,0,0,1.891618e-12,2.220446e-16,0,-5.159306e-18,0,0,0,0,2.221644e-16,-1.198142e-19,1.111421e-16,43.669662,1.481895e-16,1.481496e-16,0,0,0,0,0,0
2.444349,4.086641,-10.687335,1.891618e-12,0,0,1.891618e-12,0,-1.110223e-16,-8.911872e-18,0,0,0,0,7.108139e-19,-1.117331e-16,5.622196e-17,40.439724,7.496262e-17,7.472681e-17,0,0,0,0,0,0
2.491639,4.086641,-10.687901,1.891618e-12,0,0,1.891618e-12,0,0,4.278596e-18,0,0,0,0,4.278596e-18,-4.278596e-18,4.278596e-18,90,5.704795e-18,4.940497e-18,0,0,0,0,0,0
2.53893,4.086641,-10.685578,1.891618e-12,0,0,1.891618e-12,-1.110223e-16,2.220446e-16,2.697076e-17,0,0,0,0,2.242145e-16,-1.131922e-16,1.687033e-16,-49.599705,2.249378e-16,1.982859e-16,0,0,0,0,0,0
2.58622,4.086641,-10.682422,1.891618e-12,0,0,1.891618e-12,-1.110223e-16,2.220446e-16,1.961237e-17,0,0,0,0,2.231955e-16,-1.121732e-16,1.676843e-16,-48.358345,2.235791e-16,1.971301e-16,0,0,0,0,0,0
2.633511,4.086641,-10.677745,1.891618e-12,0,0,1.891618e-12,2.220446e-16,2.220446e-16,-1.009826e-17,0,0,0,0,2.321429e-16,2.119463e-16,1.009826e-17,0,1.346435e-17,1.484883e-16,0,0,0,0,0,0
2.680801,4.086641,-10.670284,1.891618e-12,0,0,1.891618e-12,2.220446e-16,-1.110223e-16,-5.009837e-17,0,0,0,0,2.29417e-16,-1.183947e-16,1.739058e-16,36.628551,2.318744e-16,2.041908e-16,0,0,0,0,0,0
2.728091,4.086641,-10.659712,1.891618e-12,0,0,1.891618e-12,4.440892e-16,0,1.914354e-18,0,0,0,0,4.440975e-16,-8.252128e-21,2.220529e-16,45.246983,2.960705e-16,2.960677e-16,0,0,0,0,0,0
2.775382,4.086641,-10.646962,1.891618e-12,0,0,1.891618e-12,2.220446e-16,-1.110223e-16,-5.863644e-18,0,0,0,0,2.221478e-16,-1.111255e-16,1.666366e-16,43.991726,2.221822e-16,1.959419e-16,0,0,0,0,0,0
2.822672,4.086641,-10.63305,1.891618e-12,0,0,1.891618e-12,0,-4.440892e-16,-4.97465e-18,0,0,0,0,5.571862e-20,-4.441449e-16,2.221003e-16,44.358284,2.961338e-16,2.961152e-16,0,0,0,0,0,0
2.869963,4.086641,-10.616493,1.891618e-12,0,0,1.891618e-12,2.220446e-16,0,3.10937e-17,0,0,0,0,2.263166e-16,-4.271973e-18,1.152943e-16,52.822906,1.537257e-16,1.523217e-16,0,0,0,0,0,0
2.917253,4.086641,-10.595095,1.891618e-12,0,0,1.891618e-12,-1.110223e-16,0,3.408601e-18,0,0,0,0,1.045522e-19,-1.111269e-16,5.56157e-17,-46.756886,7.415427e-17,7.411945e-17,0,0,0,0,0,0
2.964544,4.086641,-10.568034,1.891618e-12,0,0,1.891618e-12,0,-1.110223e-16,1.824167e-17,0,0,0,0,2.920402e-18,-1.139427e-16,5.843156e-17,54.095589,7.790874e-17,7.695374e-17,0,0,0,0,0,0
3.011834,4.086641,-10.537155,1.891618e-12,0,0,1.891618e-12,4.440892e-16,0,-7.573151e-18,0,0,0,0,4.442183e-16,-1.291091e-19,2.221737e-16,44.0233,2.962316e-16,2.961886e-16,0,0,0,0,0,0
3.059125,4.086641,-10.504688,1.891618e-12,0,0,1.891618e-12,2.220446e-16,-2.220446e-16,-8.329017e-18,0,0,0,0,2.222008e-16,-2.222008e-16,2.222008e-16,43.925903,2.962677e-16,2.565753e-16,0,0,0,0,0,0
3.106415,4.086641,-10.471379,1.891618e-12,0,0,1.891618e-12,0,2.220446e-16,-9.611468e-18,0,0,0,0,2.224599e-16,-4.152673e-19,1.114376e-16,-42.526051,1.485834e-16,1.484452e-16,0,0,0,0,0,0
3.153705,4.086641,-10.435335,1.891618e-12,0,0,1.891618e-12,2.220446e-16,2.220446e-16,2.209329e-17,0,0,0,0,2.441379e-16,1.999513e-16,2.209329e-17,90,2.945772e-17,1.502119e-16,0,0,0,0,0,0
3.200996,4.086641,-10.394197,1.891618e-12,0,0,1.891618e-12,2.220446e-16,0,2.524716e-17,0,0,0,0,2.248791e-16,-2.834496e-18,1.138568e-16,51.405769,1.518091e-16,1.508731e-16,0,0,0,0,0,0
3.248286,4.086641,-10.345868,1.891618e-12,0,0,1.891618e-12,2.220446e-16,0,-2.819471e-17,0,0,0,0,2.255688e-16,-3.524164e-18,1.145465e-16,37.875332,1.527286e-16,1.515676e-16,0,0,0,0,0,0
3.295577,4.086641,-10.289969,1.891618e-12,0,0,1.891618e-12,2.220446e-16,-2.220446e-16,3.396296e-17,0,0,0,0,2.24627e-16,-2.24627e-16,2.24627e-16,49.348156,2.995027e-16,2.593769e-16,0,0,0,0,0,0
3.342867,4.086641,-10.22561,1.891618e-12,0,0,1.891618e-12,-2.220446e-16,0,-4.706999e-17,0,0,0,0,9.565987e-18,-2.316106e-16,1.205883e-16,-33.512287,1.607844e-16,1.576925e-16,0,0,0,0,0,0
1.451249,4.039351,-9.925206,1.891618e-12,0,0,1.891618e-12,2.220446e-16,-2.220446e-16,-1.963613e-17,0,0,0,0,2.229111e-16,-2.229111e-16,2.229111e-16,42.473148,2.972149e-16,2.573956e-16,0,0,0,0,0,0
1.49854,4.039351,-10.019024,1.891618e-12,0,0,1.891618e-12,-1.110223e-16,-1.110223e-16,-7.039122e-17,0,0,0,0,-4.063109e-17,-1.814135e-16,7.039122e-17,0,9.385496e-17,1.099307e-16,0,0,0,0,0,0
1.54583,4.039351,-10.120626,1.891618e-12,0,0,1.891618e-12,2.220446e-16,-1.110223e-16,2.792109e-19,0,0,0,0,2.220448e-16,-1.110225e-16,1.665337e-16,45.048031,2.220449e-16,1.958252e-16,0,0,0,0,0,0
1.593121,4.039351,-10.208892,1.891618e-12,0,0,1.891618e-12,0,0,5.204035e-18,0,0,0,0,5.204035e-18,-5.204035e-18,5.204035e-18,90,6.938713e-18,6.009102e-18,0,0,0,0,0,0
1.640411,4.039351,-10.277263,1.891618e-12,0,0,1.891618e-12,0,0,5.886442e-17,0,0,0,0,5.886442e-17,-5.886442e-17,5.886442e-17,90,7.848589e-17,6.797078e-17,0,0,0,0,0,0
1.687701,4.039351,-10.334361,1.891618e-12,0,0,1.891618e-12,4.440892e-16,-1.110223e-16,-2.662346e-17,0,0,0,0,4.453631e-16,-1.122963e-16,2.788297e-16,42.260445,3.71773e-16,3.405691e-16,0,0,0,0,0,0
1.734992,4.039351,-10.383423,1.891618e-12,0,0,1.891618e-12,-2.220446e-16,2.220446e-16,-2.334753e-17,0,0,0,0,2.232687e-16,-2.232687e-16,2.232687e-16,-41.99876,2.976916e-16,2.578085e-16,0,0,0,0,0,0
1.782282,4.039351,-10.425166,1.891618e-12,0,0,1.891618e-12,-2.220446e-16,-1.110223e-16,-1.750539e-17,0,0,0,0,-1.083276e-16,-2.247394e-16,5.82059e-17,-36.248692,7.760787e-17,1.297813e-16,0,0,0,0,0,0
1.829573,4.039351,-10.461414,1.891618e-12,0,0,1.891618e-12,2.220446e-16,0,-2.51318e-17,0,0,0,0,2.248536e-16,-2.808973e-18,1.138313e-16,38.62254,1.51775e-16,1.508474e-16,0,0,0,0,0,0
1.876863,4.039351,-10.494697,1.891618e-12,0,0,1.891618e-12,2.220446e-16,2.220446e-16,1.451338e-17,0,0,0,0,2.36558e-16,2.075312e-16,1.451338e-17,90,1.935117e-17,1.489753e-16,0,0,0,0,0,0
1.924154,4.039351,-10.526531,1.891618e-12,0,0,1.891618e-12,-2.220446e-16,-2.220446e-16,2.158684e-17,0,0,0,0,-2.004578e-16,-2.436315e-16,2.158684e-17,90,2.878245e-17,1.501137e-16,0,0,0,0,0,0
1.971444,4.039351,-10.556304,1.891618e-12,0,0,1.891618e-12,0,0,-2.372724e-18,0,0,0,0,2.372724e-18,-2.372724e-18,2.372724e-18,0,3.163632e-18,2.739786e-18,0,0,0,0,0,0
2.018735,4.039351,-10.582812,1.891618e-12,0,0,1.891618e-12,0,0,-3.740926e-17,0,0,0,0,3.740926e-17,-3.740926e-17,3.740926e-17,0,4.987902e-17,4.31965e-17,0,0,0,0,0,0
2.066025,4.039351,-10.605363,1.891618e-12,0,0,1.891618e-12,2.220446e-16,2.220446e-16,1.723344e-17,0,0,0,0,2.39278e-16,2.048112e-16,1.723344e-17,90,2.297792e-17,1.493613e-16,0,0,0,0,0,0
2.113316,4.039351,-10.623746,1.891618e-12,0,0,1.891618e-12,-1.110223e-16,0,6.979641e-18,0,0,0,0,4.370686e-19,-1.114594e-16,5.594822e-17,-48.58321,7.459763e-17,7.445236e-17,0,0,0,0,0,0
2.160606,4.039351,-10.637529,1.891618e-12,0,0,1.891618e-12,4.440892e-16,2.220446e-16,-4.235803e-18,0,0,0,0,4.4417e-16,2.219638e-16,1.111031e-16,43.907536,1.481374e-16,2.564417e-16,0,0,0,0,0,0
2.207896,4.039351,-10.647252,1.891618e-12,0,0,1.891618e-12,-1.110223e-16,2.220446e-16,2.481585e-17,0,0,0,0,2.238834e-16,-1.128611e-16,1.683723e-16,-49.237759,2.244963e-16,1.979103e-16,0,0,0,0,0,0
2.255187,4.039351,-10.655041,1.891618e-12,0,0,1.891618e-12,0,-1.110223e-16,2.016846e-17,0,0,0,0,3.550298e-18,-1.145726e-16,5.906145e-17,54.983616,7.87486e-17,7.759225e-17,0,0,0,0,0,0
2.302477,4.039351,-10.663578,1.891618e-12,0,0,1.891618e-12,0,2.220446e-16,-5.125877e-18,0,0,0,0,2.221629e-16,-1.182674e-19,1.111406e-16,-43.678272,1.481874e-16,1.48148e-16,0,0,0,0,0,0
2.349768,4.039351,-10.672994,1.891618e-12,0,0,1.891618e-12,-1.110223e-16,0,1.334368e-17,0,0,0,0,1.581244e-18,-1.126035e-16,5.70924e-17,-51.758114,7.61232e-17,7.560163e-17,0,0,0,0,0,0
2.397058,4.039351,-10.681852,1.891618e-12,0,0,1.891618e-12,-1.110223e-16,2.220446e-16,-4.531591e-17,0,0,0,0,2.281e-16,-1.170777e-16,1.725889e-16,-37.388824,2.301185e-16,2.026955e-16,0,0,0,0,0,0
2.444349,4.039351,-10.686993,1.891618e-12,0,0,1.891618e-12,-1.110223e-16,-1.110223e-16,2.096279e-18,0,0,0,0,-1.08926e-16,-1.131186e-16,2.096279e-18,90,2.795039e-18,7.405444e-17,0,0,0,0,0,0
2.491639,4.039351,-10.687554,1.891618e-12,0,0,1.891618e-12,-1.110223e-16,2.220446e-16,3.919075e-18,0,0,0,0,2.220907e-16,-1.110684e-16,1.665796e-16,-45.674053,2.221061e-16,1.958772e-16,0,0,0,0,0,0
2.53893,4.039351,-10.685018,1.891618e-12,0,0,1.891618e-12,2.220446e-16,-1.110223e-16,-2.02935e-17,0,0,0,0,2.232765e-16,-1.122542e-16,1.677654e-16,41.526142,2.236872e-16,1.97222e-16,0,0,0,0,0,0
2.58622,4.039351,-10.68113,1.891618e-12,0,0,1.891618e-12,0,2.220446e-16,-1.295434e-17,0,0,0,0,2.227978e-16,-7.532164e-19,1.117755e-16,-41.672344,1.49034e-16,1.487836e-16,0,0,0,0,0,0
2.633511,4.039351,-10.675915,1.891618e-12,0,0,1.891618e-12,-2.220446e-16,-1.110223e-16,3.812404e-17,0,0,0,0,-9.919156e-17,-2.338754e-16,6.734189e-17,-62.24028,8.978918e-17,1.355453e-16,0,0,0,0,0,0
2.680801,4.039351,-10.668329,1.891618e-12,0,0,1.891618e-12,2.220446e-16,0,-4.28583e-17,0,0,0,0,2.300298e-16,-7.9852e-18,1.190075e-16,34.445877,1.586767e-16,1.56083e-16,0,0,0,0,0,0
2.728091,4.039351,-10.657753,1.891618e-12,0,0,1.891618e-12,-1.110223e-16,-2.220446e-16,-1.61824e-17,0,0,0,0,-1.087117e-16,-2.243552e-16,5.782178e-17,36.873867,7.709571e-17,1.295522e-16,0,0,0,0,0,0
2.775382,4.039351,-10.645063,1.891618e-12,0,0,1.891618e-12,2.220446e-16,2.220446e-16,-1.435275e-17,0,0,0,0,2.363973e-16,2.076919e-16,1.435275e-17,0,1.913699e-17,1.489546e-16,0,0,0,0,0,0
2.822672,4.039351,-10.631481,1.891618e-12,0,0,1.891618e-12,-1.110223e-16,0,6.524609e-18,0,0,0,0,3.82126e-19,-1.114044e-16,5.589328e-17,-48.351807,7.452437e-17,7.439732e-17,0,0,0,0,0,0
2.869963,4.039351,-10.615859,1.891618e-12,0,0,1.891618e-12,-1.110223e-16,2.220446e-16,-2.103993e-17,0,0,0,0,2.233684e-16,-1.123461e-16,1.678573e-16,-41.399685,2.238097e-16,1.973262e-16,0,0,0,0,0,0
2.917253,4.039351,-10.59599,1.891618e-12,0,0,1.891618e-12,-2.220446e-16,0,5.822961e-17,0,0,0,0,1.434372e-17,-2.363883e-16,1.25366e-16,-58.838184,1.671547e-16,1.625845e-16,0,0,0,0,0,0
2.964544,4.039351,-10.570472,1.891618e-12,0,0,1.891618e-12,2.220446e-16,0,2.607041e-17,0,0,0,0,2.250645e-16,-3.019873e-18,1.140422e-16,51.607426,1.520562e-16,1.510597e-16,0,0,0,0,0,0
3.011834,4.039351,-10.540149,1.891618e-12,0,0,1.891618e-12,0,-1.110223e-16,-6.088145e-18,0,0,0,0,3.328585e-19,-1.113552e-16,5.584401e-17,41.870571,7.445868e-17,7.434797e-17,0,0,0,0,0,0
3.059125,4.039351,-10.507118,1.891618e-12,0,0,1.891618e-12,0,-1.110223e-16,-1.946585e-17,0,0,0,0,3.314074e-18,-1.143364e-16,5.882523e-17,35.337994,7.843364e-17,7.735261e-17,0,0,0,0,0,0
3.106415,4.039351,-10.47304,1.891618e-12,0,0,1.891618e-12,-2.220446e-16,0,1.606495e-17,0,0,0,0,1.156279e-18,-2.232009e-16,1.121786e-16,-49.116783,1.495714e-16,1.491875e-16,0,0,0,0,0,0
3.153705,4.039351,-10.436582,1.891618e-12,0,0,1.891618e-12,2.220446e-16,0,-1.89994e-17,0,0,0,0,2.236586e-16,-1.613965e-18,1.126363e-16,40.144482,1.501817e-16,1.496466e-16,0,0,0,0,0,0
3.200996,4.039351,-10.395476,1.891618e-12,0,0,1.891618e-12,0,-1.110223e-16,-9.697532e-18,0,0,0,0,8.406902e-19,-1.11863e-16,5.635184e-17,40.045349,7.513579e-17,7.485713e-17,0,0,0,0,0,0
3.248286,4.039351,-10.347159,1.891618e-12,0,0,1.891618e-12,0,-1.110223e-16,-5.645136e-17,0,0,0,0,2.36611e-17,-1.346834e-16,7.917225e-17,22.259432,1.05563e-16,9.862662e-17,0,0,0,0,0,0
3.295577,4.039351,-10.290669,1.891618e-12,0,0,1.891618e-12,0,0,-2.323987e-17,0,0,0,0,2.323987e-17,-2.323987e-17,2.323987e-17,0,3.09865e-17,2.68351e-17,0,0,0,0,0,0
3.342867,4.039351,-10.224447,1.891618e-12,0,0,1.891618e-12,0,0,1.365892e-17,0,0,0,0,1.365892e-17,-1.365892e-17,1.365892e-17,90,1.82119e-17,1.577197e-17,0,0,0,0,0,0
1.49854,3.99206,-10.015808,1.891618e-12,0,0,1.891618e-12,0,4.440892e-16,-3.275981e-17,0,0,0,0,4.464928e-16,-2.403633e-18,2.244482e-16,-40.803646,2.992643e-16,2.984663e-16,0,0,0,0,0,0
1.54583,3.99206,-10.122448,1.891618e-12,0,0,1.891618e-12,2.220446e-16,2.220446e-16,-4.439302e-17,0,0,0,0,2.664376e-16,1.776516e-16,4.439302e-17,0,5.91907e-17,1.566539e-16,0,0,0,0,0,0
1.593121,3.99206,-10.212042,1.891618e-12,0,0,1.891618e-12,2.220446e-16,2.220446e-16,3.648087e-17,0,0,0,0,2.585255e-16,1.855637e-16,3.648087e-17,90,4.864116e-17,1.539067e-16,0,0,0,0,0,0
1.640411,3.99206,-10.280876,1.891618e-12,0,0,1.891618e-12,2.220446e-16,2.220446e-16,3.592708e-17,0,0,0,0,2.579717e-16,1.861175e-16,3.592708e-17,90,4.790277e-17,1.537329e-16,0,0,0,0,0,0
1.687701,3.99206,-10.337626,1.891618e-12,0,0,1.891618e-12,0,2.220446e-16,6.350055e-18,0,0,0,0,2.222261e-16,-1.814512e-19,1.112038e-16,-46.636768,1.482717e-16,1.482112e-16,0,0,0,0,0,0
1.734992,3.99206,-10.385799,1.891618e-12,0,0,1.891618e-12,0,2.220446e-16,4.273844e-17,0,0,0,0,2.299867e-16,-7.942086e-18,1.189644e-16,-55.527195,1.586192e-16,1.560392e-16,0,0,0,0,0,0
1.782282,3.99206,-10.426901,1.891618e-12,0,0,1.891618e-12,0,2.220446e-16,-9.15582e-18,0,0,0,0,2.224215e-16,-3.768927e-19,1.113992e-16,-42.642792,1.485323e-16,1.484068e-16,0,0,0,0,0,0
1.829573,3.99206,-10.462728,1.891618e-12,0,0,1.891618e-12,4.440892e-16,0,-2.963706e-17,0,0,0,0,4.460583e-16,-1.969149e-18,2.240137e-16,41.198734,2.98685e-16,2.980308e-16,0,0,0,0,0,0
1.876863,3.99206,-10.4959,1.891618e-12,0,0,1.891618e-12,4.440892e-16,2.220446e-16,-2.393766e-18,0,0,0,0,4.44115e-16,2.220188e-16,1.110481e-16,44.382416,1.480641e-16,2.564099e-16,0,0,0,0,0,0
1.924154,3.99206,-10.527773,1.891618e-12,0,0,1.891618e-12,-4.440892e-16,0,-3.135796e-17,0,0,0,0,2.203312e-18,-4.462925e-16,2.242479e-16,-40.98082,2.989972e-16,2.982655e-16,0,0,0,0,0,0
1.971444,3.99206,-10.557395,1.891618e-12,0,0,1.891618e-12,0,0,2.437956e-17,0,0,0,0,2.437956e-17,-2.437956e-17,2.437956e-17,90,3.250608e-17,2.815109e-17,0,0,0,0,0,0
2.018735,3.99206,-10.583392,1.891618e-12,0,0,1.891618e-12,-1.110223e-16,-2.220446e-16,1.262079e-17,0,0,0,0,-1.096057e-16,-2.234612e-16,5.692778e-17,51.4044,7.590371e-17,1.290232e-16,0,0,0,0,0,0
2.066025,3.99206,-10.604842,1.891618e-12,0,0,1.891618e-12,-1.110223e-16,2.220446e-16,-5.038206e-18,0,0,0,0,2.221208e-16,-1.110985e-16,1.666096e-16,-44.133568,2.221462e-16,1.959113e-16,0,0,0,0,0,0
2.113316,3.99206,-10.621663,1.891618e-12,0,0,1.891618e-12,0,2.220446e-16,-2.954492e-18,0,0,0,0,2.220839e-16,-3.930506e-20,1.110616e-16,-44.237812,1.480821e-16,1.48069e-16,0,0,0,0,0,0
2.160606,3.99206,-10.634506,1.891618e-12,0,0,1.891618e-12,0,-2.220446e-16,-3.191114e-18,0,0,0,0,4.585164e-20,-2.220905e-16,1.110681e-16,44.1768,1.480909e-16,1.480756e-16,0,0,0,0,0,0
2.207896,3.99206,-10.644624,1.891618e-12,0,0,1.891618e-12,4.440892e-16,-2.220446e-16,1.777308e-17,0,0,0,0,4.445631e-16,-2.225185e-16,3.335408e-16,46.527256,4.44721e-16,3.921872e-16,0,0,0,0,0,0
2.255187,3.99206,-10.654109,1.891618e-12,0,0,1.891618e-12,4.440892e-16,2.220446e-16,4.248661e-17,0,0,0,0,4.51941e-16,2.141928e-16,1.188742e-16,55.470558,1.584989e-16,2.610464e-16,0,0,0,0,0,0
2.302477,3.99206,-10.664601,1.891618e-12,0,0,1.891618e-12,2.220446e-16,0,-4.826362e-17,0,0,0,0,2.320815e-16,-1.003689e-17,1.210592e-16,33.252224,1.614123e-16,1.581728e-16,0,0,0,0,0,0
2.349768,3.99206,-10.675551,1.891618e-12,0,0,1.891618e-12,2.220446e-16,-2.220446e-16,-1.765178e-17,0,0,0,0,2.227451e-16,-2.227451e-16,2.227451e-16,42.727371,2.969935e-16,2.572039e-16,0,0,0,0,0,0
2.397058,3.99206,-10.684864,1.891618e-12,0,0,1.891618e-12,-4.440892e-16,-1.110223e-16,2.982318e-17,0,0,0,0,-1.08373e-16,-4.467385e-16,1.691828e-16,-50.076515,2.25577e-16,2.690771e-16,0,0,0,0,0,0
2.444349,3.99206,-10.68998,1.891618e-12,0,0,1.891618e-12,-1.110223e-16,2.220446e-16,3.186147e-18,0,0,0,0,2.220751e-16,-1.110528e-16,1.665639e-16,-45.548031,2.220852e-16,1.958595e-16,0,0,0,0,0,0
2.491639,3.99206,-10.690544,1.891618e-12,0,0,1.891618e-12,-2.220446e-16,0,-3.026958e-17,0,0,0,0,4.052452e-18,-2.26097e-16,1.150748e-16,-37.374657,1.53433e-16,1.521002e-16,0,0,0,0,0,0
2.53893,3.99206,-10.687674,1.891618e-12,0,0,1.891618e-12,-1.110223e-16,2.220446e-16,-1.579072e-18,0,0,0,0,2.220521e-16,-1.110298e-16,1.665409e-16,-44.728367,2.220546e-16,1.958334e-16,0,0,0,0,0,0
2.58622,3.99206,-10.682931,1.891618e-12,0,0,1.891618e-12,-1.110223e-16,2.220446e-16,7.419834e-18,0,0,0,0,2.222098e-16,-1.111875e-16,1.666987e-16,-46.275551,2.222649e-16,1.960123e-16,0,0,0,0,0,0
2.633511,3.99206,-10.67676,1.891618e-12,0,0,1.891618e-12,0,-4.440892e-16,-8.946288e-18,0,0,0,0,1.801521e-19,-4.442694e-16,2.222248e-16,43.846386,2.962997e-16,2.962396e-16,0,0,0,0,0,0
2.680801,3.99206,-10.668159,1.891618e-12,0,0,1.891618e-12,0,-1.110223e-16,-2.883607e-17,0,0,0,0,7.042879e-18,-1.180652e-16,6.255403e-17,31.274864,8.340538e-17,8.115967e-17,0,0,0,0,0,0
2.728091,3.99206,-10.65703,1.891618e-12,0,0,1.891618e-12,0,2.220446e-16,5.747432e-17,0,0,0,0,2.360393e-16,-1.399469e-17,1.25017e-16,-58.68491,1.666893e-16,1.622258e-16,0,0,0,0,0,0
2.775382,3.99206,-10.644096,1.891618e-12,0,0,1.891618e-12,2.220446e-16,-1.110223e-16,-4.712928e-18,0,0,0,0,2.221113e-16,-1.11089e-16,1.666001e-16,44.189476,2.221335e-16,1.959005e-16,0,0,0,0,0,0
2.822672,3.99206,-10.630458,1.891618e-12,0,0,1.891618e-12,0,0,2.618388e-17,0,0,0,0,2.618388e-17,-2.618388e-17,2.618388e-17,90,3.491184e-17,3.023454e-17,0,0,0,0,0,0
2.869963,3.99206,-10.615683,1.891618e-12,0,0,1.891618e-12,-1.110223e-16,-1.110223e-16,5.817656e-17,0,0,0,0,-5.284575e-17,-1.691989e-16,5.817656e-17,90,7.756874e-17,9.99544e-17,0,0,0,0,0,0
2.917253,3.99206,-10.597461,1.891618e-12,0,0,1.891618e-12,2.220446e-16,2.220446e-16,2.264829e-18,0,0,0,0,2.243094e-16,2.197798e-16,2.264829e-18,90,3.019772e-18,1.480528e-16,0,0,0,0,0,0
2.964544,3.99206,-10.573691,1.891618e-12,0,0,1.891618e-12,0,2.220446e-16,-2.726244e-17,0,0,0,0,2.253429e-16,-3.298265e-18,1.143206e-16,-38.101765,1.524274e-16,1.5134e-16,0,0,0,0,0,0
3.011834,3.99206,-10.544587,1.891618e-12,0,0,1.891618e-12,0,2.220446e-16,-2.852884e-17,0,0,0,0,2.256515e-16,-3.606867e-18,1.146292e-16,-37.794395,1.528389e-16,1.516509e-16,0,0,0,0,0,0
3.059125,3.99206,-10.511742,1.891618e-12,0,0,1.891618e-12,2.220446e-16,2.220446e-16,-4.637387e-17,0,0,0,0,2.684185e-16,1.756707e-16,4.637387e-17,0,6.183182e-17,1.574172e-16,0,0,0,0,0,0
3.106415,3.99206,-10.477412,1.891618e-12,0,0,1.891618e-12,0,0,-2.406853e-18,0,0,0,0,2.406853e-18,-2.406853e-18,2.406853e-18,0,3.209137e-18,2.779194e-18,0,0,0,0,0,0
3.153705,3.99206,-10.440963,1.891618e-12,0,0,1.891618e-12,2.220446e-16,0,-5.219925e-17,0,0,0,0,2.337036e-16,-1.165905e-17,1.226814e-16,32.409271,1.635751e-16,1.598306e-16,0,0,0,0,0,0
3.200996,3.99206,-10.399806,1.891618e-12,0,0,1.891618e-12,0,0,-1.38808e-17,0,0,0,0,1.38808e-17,-1.38808e-17,1.38808e-17,0,1.850774e-17,1.602817e-17,0,0,0,0,0,0
3.248286,3.99206,-10.351351,1.891618e-12,0,0,1.891618e-12,0,2.220446e-16,-6.350284e-18,0,0,0,0,2.222261e-16,-1.814643e-19,1.112038e-16,-43.363174,1.482717e-16,1.482112e-16,0,0,0,0,0,0
3.295577,3.99206,-10.294321,1.891618e-12,0,0,1.891618e-12,2.220446e-16,0,-5.357402e-17,0,0,0,0,2.342949e-16,-1.225027e-17,1.232726e-16,32.12014,1.643634e-16,1.60436e-16,0,0,0,0,0,0
3.342867,3.99206,-10.226391,1.891618e-12,0,0,1.891618e-12,-2.220446e-16,0,2.176236e-17,0,0,0,0,2.112803e-18,-2.241574e-16,1.131351e-16,-50.545193,1.508468e-16,1.501475e-16,0,0,0,0,0,0
1.451249,3.94477,-9.922531,1.891618e-12,0,0,1.891618e-12,0,-3.330669e-16,1.381504e-17,0,0,0,0,5.720419e-19,-3.336389e-16,1.671055e-16,47.371101,2.228073e-16,2.226169e-16,0,0,0,0,0,0
1.49854,3.94477,-10.019745,1.891618e-12,0,0,1.891618e-12,-2.220446e-16,0,3.725053e-17,0,0,0,0,6.082581e-18,-2.281272e-16,1.171049e-16,-54.273891,1.561398e-16,1.541523e-16,0,0,0,0,0,0
1.54583,3.94477,-10.125104,1.891618e-12,0,0,1.891618e-12,-1.110223e-16,0,5.557482e-19,0,0,0,0,2.781858e-21,-1.110251e-16,5.551393e-17,-45.286797,7.401858e-17,7.401765e-17,0,0,0,0,0,0
1.593121,3.94477,-10.214875,1.891618e-12,0,0,1.891618e-12,-5.551115e-16,0,5.057103e-17,0,0,0,0,4.56944e-18,-5.596809e-16,2.821252e-16,-50.163048,3.761669e-16,3.746531e-16,0,0,0,0,0,0
1.640411,3.94477,-10.28375,1.891618e-12,0,0,1.891618e-12,2.220446e-16,2.220446e-16,1.612099e-17,0,0,0,0,2.381656e-16,2.059236e-16,1.612099e-17,90,2.149465e-17,1.491956e-16,0,0,0,0,0,0
1.687701,3.94477,-10.340415,1.891618e-12,0,0,1.891618e-12,4.440892e-16,-4.440892e-16,2.191807e-17,0,0,0,0,4.446298e-16,-4.446298e-16,4.446298e-16,46.412773,5.928397e-16,5.134143e-16,0,0,0,0,0,0
1.734992,3.94477,-10.387841,1.891618e-12,0,0,1.891618e-12,0,0,3.508381e-17,0,0,0,0,3.508381e-17,-3.508381e-17,3.508381e-17,90,4.677841e-17,4.051129e-17,0,0,0,0,0,0
1.782282,3.94477,-10.428547,1.891618e-12,0,0,1.891618e-12,2.220446e-16,0,1.627059e-17,0,0,0,0,2.232305e-16,-1.185913e-18,1.122082e-16,49.168743,1.49611e-16,1.492172e-16,0,0,0,0,0,0
1.829573,3.94477,-10.464452,1.891618e-12,0,0,1.891618e-12,0,4.440892e-16,-5.340178e-17,0,0,0,0,4.504205e-16,-6.331307e-18,2.283759e-16,-38.238583,3.045012e-16,3.024129e-16,0,0,0,0,0,0
1.876863,3.94477,-10.498321,1.891618e-12,0,0,1.891618e-12,-2.220446e-16,2.220446e-16,1.655369e-17,0,0,0,0,2.226608e-16,-2.226608e-16,2.226608e-16,-47.13179,2.968811e-16,2.571066e-16,0,0,0,0,0,0
1.924154,3.94477,-10.531072,1.891618e-12,0,0,1.891618e-12,4.440892e-16,-2.220446e-16,1.216015e-17,0,0,0,0,4.443111e-16,-2.222665e-16,3.332888e-16,46.04546,4.443851e-16,3.919015e-16,0,0,0,0,0,0
1.971444,3.94477,-10.561055,1.891618e-12,0,0,1.891618e-12,0,0,1.750232e-17,0,0,0,0,1.750232e-17,-1.750232e-17,1.750232e-17,90,2.333643e-17,2.020994e-17,0,0,0,0,0,0
2.018735,3.94477,-10.586644,1.891618e-12,0,0,1.891618e-12,-2.220446e-16,2.220446e-16,2.237606e-17,0,0,0,0,2.231692e-16,-2.231692e-16,2.231692e-16,-47.877216,2.975589e-16,2.576936e-16,0,0,0,0,0,0
2.066025,3.94477,-10.606841,1.891618e-12,0,0,1.891618e-12,2.220446e-16,0,2.685187e-17,0,0,0,0,2.252456e-16,-3.201052e-18,1.142234e-16,51.798233,1.522978e-16,1.512421e-16,0,0,0,0,0,0
2.113316,3.94477,-10.621921,1.891618e-12,0,0,1.891618e-12,0,0,-1.47589e-18,0,0,0,0,1.47589e-18,-1.47589e-18,1.47589e-18,0,1.967853e-18,1.704211e-18,0,0,0,0,0,0
2.160606,3.94477,-10.633767,1.891618e-12,0,0,1.891618e-12,2.220446e-16,-1.110223e-16,2.321496e-17,0,0,0,0,2.236549e-16,-1.126326e-16,1.681438e-16,48.967979,2.241917e-16,1.976512e-16,0,0,0,0,0,0
2.207896,3.94477,-10.644471,1.891618e-12,0,0,1.891618e-12,-1.110223e-16,-1.110223e-16,-4.024174e-17,0,0,0,0,-7.078056e-17,-1.51264e-16,4.024174e-17,0,5.365566e-17,8.739221e-17,0,0,0,0,0,0
2.255187,3.94477,-10.655843,1.891618e-12,0,0,1.891618e-12,-1.110223e-16,-1.110223e-16,1.276053e-17,0,0,0,0,-9.826177e-17,-1.237828e-16,1.276053e-17,90,1.701404e-17,7.546727e-17,0,0,0,0,0,0
2.302477,3.94477,-10.668439,1.891618e-12,0,0,1.891618e-12,2.220446e-16,2.220446e-16,-1.193449e-17,0,0,0,0,2.339791e-16,2.101101e-16,1.193449e-17,0,1.591265e-17,1.486698e-16,0,0,0,0,0,0
2.349768,3.94477,-10.680866,1.891618e-12,0,0,1.891618e-12,-1.110223e-16,0,1.326221e-17,0,0,0,0,1.56226e-18,-1.125846e-16,5.707341e-17,-51.718357,7.609788e-17,7.558251e-17,0,0,0,0,0,0
2.397058,3.94477,-10.69066,1.891618e-12,0,0,1.891618e-12,2.220446e-16,2.220446e-16,8.987958e-18,0,0,0,0,2.310326e-16,2.130566e-16,8.987958e-18,90,1.198394e-17,1.483931e-16,0,0,0,0,0,0
2.444349,3.94477,-10.695733,1.891618e-12,0,0,1.891618e-12,-1.110223e-16,0,-8.947104e-18,0,0,0,0,7.164095e-19,-1.117387e-16,5.622756e-17,-40.422001,7.497008e-17,7.473242e-17,0,0,0,0,0,0
2.491639,3.94477,-10.695977,1.891618e-12,0,0,1.891618e-12,-2.220446e-16,-1.110223e-16,-4.051044e-17,0,0,0,0,-9.78124e-17,-2.352545e-16,6.872105e-17,-26.939554,9.162807e-17,1.364651e-16,0,0,0,0,0,0
2.53893,3.94477,-10.692448,1.891618e-12,0,0,1.891618e-12,-1.110223e-16,2.220446e-16,-2.721518e-17,0,0,0,0,2.242537e-16,-1.132314e-16,1.687426e-16,-40.359337,2.249901e-16,1.983304e-16,0,0,0,0,0,0
2.58622,3.94477,-10.686676,1.891618e-12,0,0,1.891618e-12,2.220446e-16,-2.220446e-16,2.550798e-18,0,0,0,0,2.220592e-16,-2.220592e-16,2.220592e-16,45.329086,2.96079e-16,2.564119e-16,0,0,0,0,0,0
2.633511,3.94477,-10.679406,1.891618e-12,0,0,1.891618e-12,-1.110223e-16,0,2.523461e-18,0,0,0,0,5.732695e-20,-1.110796e-16,5.556848e-17,-46.301399,7.40913e-17,7.40722e-17,0,0,0,0,0,0
2.680801,3.94477,-10.669841,1.891618e-12,0,0,1.891618e-12,-2.220446e-16,2.220446e-16,5.29231e-17,0,0,0,0,2.282644e-16,-2.282644e-16,2.282644e-16,-51.703007,3.043526e-16,2.635771e-16,0,0,0,0,0,0
2.728091,3.94477,-10.657925,1.891618e-12,0,0,1.891618e-12,2.220446e-16,0,-1.330628e-17,0,0,0,0,2.228391e-16,-7.945515e-19,1.118169e-16,41.582783,1.490891e-16,1.48825e-16,0,0,0,0,0,0
2.775382,3.94477,-10.6443,1.891618e-12,0,0,1.891618e-12,2.220446e-16,-2.220446e-16,3.891129e-18,0,0,0,0,2.220787e-16,-2.220787e-16,2.220787e-16,45.501976,2.961049e-16,2.564344e-16,0,0,0,0,0,0
2.822672,3.94477,-10.630171,1.891618e-12,0,0,1.891618e-12,0,2.220446e-16,1.067088e-17,0,0,0,0,2.225562e-16,-5.116355e-19,1.115339e-16,-47.745052,1.487119e-16,1.485417e-16,0,0,0,0,0,0
2.869963,3.94477,-10.61557,1.891618e-12,0,0,1.891618e-12,2.220446e-16,4.440892e-16,-4.278416e-18,0,0,0,0,4.441716e-16,2.219622e-16,1.111047e-16,-43.896557,1.481396e-16,2.564426e-16,0,0,0,0,0,0
2.917253,3.94477,-10.598515,1.891618e-12,0,0,1.891618e-12,0,0,-1.464092e-17,0,0,0,0,1.464092e-17,-1.464092e-17,1.464092e-17,0,1.952123e-17,1.690588e-17,0,0,0,0,0,0
2.964544,3.94477,-10.576418,1.891618e-12,0,0,1.891618e-12,2.220446e-16,0,-1.29744e-17,0,0,0,0,2.228002e-16,-7.555433e-19,1.117778e-16,41.667236,1.490371e-16,1.487859e-16,0,0,0,0,0,0
3.011834,3.94477,-10.549009,1.891618e-12,0,0,1.891618e-12,2.220446e-16,-1.110223e-16,-3.665869e-18,0,0,0,0,2.220849e-16,-1.110626e-16,1.665738e-16,44.36948,2.220984e-16,1.958707e-16,0,0,0,0,0,0
3.059125,3.94477,-10.517344,1.891618e-12,0,0,1.891618e-12,0,2.220446e-16,3.07284e-17,0,0,0,0,2.262186e-16,-4.173993e-18,1.151963e-16,-52.735428,1.535951e-16,1.522228e-16,0,0,0,0,0,0
3.106415,3.94477,-10.483332,1.891618e-12,0,0,1.891618e-12,-2.220446e-16,-2.220446e-16,-9.00964e-18,0,0,0,0,-2.13035e-16,-2.310543e-16,9.00964e-18,0,1.201285e-17,1.483949e-16,0,0,0,0,0,0
3.153705,3.94477,-10.447194,1.891618e-12,0,0,1.891618e-12,0,2.220446e-16,-6.713459e-18,0,0,0,0,2.222474e-16,-2.027944e-19,1.112251e-16,-43.269783,1.483001e-16,1.482326e-16,0,0,0,0,0,0
3.200996,3.94477,-10.406865,1.891618e-12,0,0,1.891618e-12,2.220446e-16,2.220446e-16,-2.321948e-17,0,0,0,0,2.452641e-16,1.988251e-16,2.321948e-17,0,3.095931e-17,1.504382e-16,0,0,0,0,0,0
3.248286,3.94477,-10.358464,1.891618e-12,0,0,1.891618e-12,0,-4.440892e-16,-2.250949e-17,0,0,0,0,1.138019e-18,-4.452273e-16,2.231826e-16,42.105743,2.975768e-16,2.971982e-16,0,0,0,0,0,0
3.295577,3.94477,-10.301063,1.891618e-12,0,0,1.891618e-12,2.220446e-16,2.220446e-16,7.290384e-18,0,0,0,0,2.29335e-16,2.147542e-16,7.290384e-18,90,9.720511e-18,1.482689e-16,0,0,0,0,0,0
3.342867,3.94477,-10.231431,1.891618e-12,0,0,1.891618e-12,-2.220446e-16,-4.440892e-16,3.31287e-17,0,0,0,0,-2.172072e-16,-4.489266e-16,1.158597e-16,53.307468,1.544796e-16,2.59233e-16,0,0,0,0,0,0
1.49854,3.897479,-10.016895,1.891618e-12,0,0,1.891618e-12,2.220446e-16,-1.110223e-16,-5.215904e-17,0,0,0,0,2.300218e-16,-1.189995e-16,1.745106e-16,36.304604,2.326808e-16,2.048776e-16,0,0,0,0,0,0
1.54583,3.897479,-10.127579,1.891618e-12,0,0,1.891618e-12,-3.330669e-16,-1.110223e-16,1.316108e-17,0,0,0,0,-1.102449e-16,-3.338443e-16,1.117997e-16,-48.380276,1.490662e-16,1.964137e-16,0,0,0,0,0,0
1.593121,3.897479,-10.217042,1.891618e-12,0,0,1.891618e-12,-1.110223e-16,2.220446e-16,3.558916e-18,0,0,0,0,2.220826e-16,-1.110603e-16,1.665715e-16,-45.612129,2.220953e-16,1.95868e-16,0,0,0,0,0,0
1.640411,3.897479,-10.285759,1.891618e-12,0,0,1.891618e-12,2.220446e-16,0,-3.174204e-17,0,0,0,0,2.264931e-16,-4.44851e-18,1.154708e-16,37.022202,1.539611e-16,1.524999e-16,0,0,0,0,0,0
1.687701,3.897479,-10.341733,1.891618e-12,0,0,1.891618e-12,2.220446e-16,-1.110223e-16,1.554004e-17,0,0,0,0,2.227681e-16,-1.117458e-16,1.672569e-16,47.665554,2.230092e-16,1.966454e-16,0,0,0,0,0,0
1.734992,3.897479,-10.388504,1.891618e-12,0,0,1.891618e-12,2.220446e-16,0,1.506608e-17,0,0,0,0,2.230622e-16,-1.017594e-18,1.120399e-16,48.864006,1.493865e-16,1.490485e-16,0,0,0,0,0,0
1.782282,3.897479,-10.429013,1.891618e-12,0,0,1.891618e-12,0,2.220446e-16,2.890955e-18,0,0,0,0,2.220822e-16,-3.763301e-20,1.110599e-16,-45.745804,1.480799e-16,1.480674e-16,0,0,0,0,0,0
1.829573,3.897479,-10.465514,1.891618e-12,0,0,1.891618e-12,0,-1.110223e-16,-9.370018e-18,0,0,0,0,7.852532e-19,-1.118076e-16,5.62964e-17,40.20953,7.506187e-17,7.480149e-17,0,0,0,0,0,0
1.876863,3.897479,-10.500697,1.891618e-12,0,0,1.891618e-12,0,-1.110223e-16,6.937021e-18,0,0,0,0,4.317677e-19,-1.114541e-16,5.594292e-17,48.561558,7.459056e-17,7.444706e-17,0,0,0,0,0,0
1.924154,3.897479,-10.535007,1.891618e-12,0,0,1.891618e-12,2.220446e-16,2.220446e-16,7.588579e-18,0,0,0,0,2.296332e-16,2.14456e-16,7.588579e-18,90,1.011811e-17,1.482889e-16,0,0,0,0,0,0
1.971444,3.897479,-10.566087,1.891618e-12,0,0,1.891618e-12,-1.110223e-16,2.220446e-16,9.884033e-18,0,0,0,0,2.223377e-16,-1.113154e-16,1.668265e-16,-46.698307,2.224354e-16,1.961572e-16,0,0,0,0,0,0
2.018735,3.897479,-10.591712,1.891618e-12,0,0,1.891618e-12,-1.110223e-16,0,1.981502e-17,0,0,0,0,3.43054e-18,-1.144528e-16,5.894169e-17,-54.822155,7.858892e-17,7.747073e-17,0,0,0,0,0,0
2.066025,3.897479,-10.610869,1.891618e-12,0,0,1.891618e-12,2.220446e-16,0,3.489249e-17,0,0,0,0,2.273986e-16,-5.353972e-18,1.163763e-16,53.723537,1.551684e-16,1.534149e-16,0,0,0,0,0,0
2.113316,3.897479,-10.62452,1.891618e-12,0,0,1.891618e-12,-1.110223e-16,0,-2.801344e-17,0,0,0,0,6.667949e-18,-1.176903e-16,6.21791e-17,-31.611212,8.290547e-17,8.077461e-17,0,0,0,0,0,0
2.160606,3.897479,-10.635771,1.891618e-12,0,0,1.891618e-12,0,-5.551115e-16,-1.319683e-17,0,0,0,0,3.135551e-19,-5.554251e-16,2.778693e-16,43.638916,3.704924e-16,3.703879e-16,0,0,0,0,0,0
2.207896,3.897479,-10.647266,1.891618e-12,0,0,1.891618e-12,2.220446e-16,-4.440892e-16,5.2013e-18,0,0,0,0,2.220852e-16,-4.441298e-16,3.331075e-16,45.447342,4.441434e-16,3.916959e-16,0,0,0,0,0,0
2.255187,3.897479,-10.660278,1.891618e-12,0,0,1.891618e-12,-2.220446e-16,0,2.42071e-17,0,0,0,0,2.608395e-18,-2.24653e-16,1.136307e-16,-51.150082,1.515076e-16,1.506457e-16,0,0,0,0,0,0
2.302477,3.897479,-10.674488,1.891618e-12,0,0,1.891618e-12,0,-2.220446e-16,3.116887e-17,0,0,0,0,4.292268e-18,-2.263369e-16,1.153146e-16,52.840889,1.537528e-16,1.523422e-16,0,0,0,0,0,0
2.349768,3.897479,-10.687843,1.891618e-12,0,0,1.891618e-12,2.220446e-16,0,2.480381e-17,0,0,0,0,2.247816e-16,-2.737009e-18,1.137593e-16,51.296902,1.516791e-16,1.50775e-16,0,0,0,0,0,0
2.397058,3.897479,-10.697725,1.891618e-12,0,0,1.891618e-12,0,2.220446e-16,2.122234e-17,0,0,0,0,2.240548e-16,-2.010167e-18,1.130325e-16,-50.410881,1.5071e-16,1.500444e-16,0,0,0,0,0,0
2.444349,3.897479,-10.702338,1.891618e-12,0,0,1.891618e-12,-4.440892e-16,0,4.003273e-18,0,0,0,0,3.608485e-20,-4.441253e-16,2.220807e-16,-45.516441,2.961076e-16,2.960956e-16,0,0,0,0,0,0
2.491639,3.897479,-10.701899,1.891618e-12,0,0,1.891618e-12,0,0,3.384715e-17,0,0,0,0,3.384715e-17,-3.384715e-17,3.384715e-17,90,4.512953e-17,3.908332e-17,0,0,0,0,0,0
2.53893,3.897479,-10.697794,1.891618e-12,0,0,1.891618e-12,2.220446e-16,0,3.034934e-17,0,0,0,0,2.261181e-16,-4.073458e-18,1.150958e-16,52.644497,1.53461e-16,1.521214e-16,0,0,0,0,0,0
2.58622,3.897479,-10.691637,1.891618e-12,0,0,1.891618e-12,2.220446e-16,2.220446e-16,1.548797e-18,0,0,0,0,2.235934e-16,2.204958e-16,1.548797e-18,90,2.065062e-18,1.480405e-16,0,0,0,0,0,0
2.633511,3.897479,-10.684196,1.891618e-12,0,0,1.891618e-12,0,4.440892e-16,3.28599e-17,0,0,0,0,4.465075e-16,-2.418264e-18,2.244629e-16,-49.208992,2.992838e-16,2.98481e-16,0,0,0,0,0,0
2.680801,3.897479,-10.674605,1.891618e-12,0,0,1.891618e-12,2.220446e-16,2.220446e-16,-2.425515e-17,0,0,0,0,2.462998e-16,1.977895e-16,2.425515e-17,0,3.23402e-17,1.50656e-16,0,0,0,0,0,0
2.728091,3.897479,-10.66236,1.891618e-12,0,0,1.891618e-12,-1.110223e-16,0,2.183253e-17,0,0,0,0,4.139056e-18,-1.151614e-16,5.96502e-17,-55.734856,7.953361e-17,7.819045e-17,0,0,0,0,0,0
2.775382,3.897479,-10.647816,1.891618e-12,0,0,1.891618e-12,2.220446e-16,-1.110223e-16,-2.200962e-18,0,0,0,0,2.220591e-16,-1.110368e-16,1.66548e-16,44.621403,2.22064e-16,1.958414e-16,0,0,0,0,0,0
2.822672,3.897479,-10.632531,1.891618e-12,0,0,1.891618e-12,-1.110223e-16,-1.110223e-16,-6.125866e-17,0,0,0,0,-4.976365e-17,-1.72281e-16,6.125866e-17,0,8.167821e-17,1.023802e-16,0,0,0,0,0,0
2.869963,3.897479,-10.616936,1.891618e-12,0,0,1.891618e-12,0,0,-2.561549e-17,0,0,0,0,2.561549e-17,-2.561549e-17,2.561549e-17,0,3.415398e-17,2.957822e-17,0,0,0,0,0,0
2.917253,3.897479,-10.599861,1.891618e-12,0,0,1.891618e-12,-2.220446e-16,2.220446e-16,-2.431198e-17,0,0,0,0,2.233716e-16,-2.233716e-16,2.233716e-16,-41.875748,2.978288e-16,2.579273e-16,0,0,0,0,0,0
2.964544,3.897479,-10.578549,1.891618e-12,0,0,1.891618e-12,-3.330669e-16,0,5.572342e-19,0,0,0,0,9.322724e-22,-3.330678e-16,1.665344e-16,-45.09586,2.220458e-16,2.220455e-16,0,0,0,0,0,0
3.011834,3.897479,-10.552343,1.891618e-12,0,0,1.891618e-12,-2.220446e-16,2.220446e-16,2.154202e-17,0,0,0,0,2.230871e-16,-2.230871e-16,2.230871e-16,-47.770649,2.974495e-16,2.575988e-16,0,0,0,0,0,0
3.059125,3.897479,-10.521549,1.891618e-12,0,0,1.891618e-12,0,2.220446e-16,2.659574e-18,0,0,0,0,2.220764e-16,-3.185091e-20,1.110542e-16,-45.686138,1.480722e-16,1.480616e-16,0,0,0,0,0,0
3.106415,3.897479,-10.488075,1.891618e-12,0,0,1.891618e-12,0,2.220446e-16,-2.439289e-17,0,0,0,0,2.246927e-16,-2.648119e-18,1.136704e-16,-38.804173,1.515606e-16,1.506856e-16,0,0,0,0,0,0
3.153705,3.897479,-10.45233,1.891618e-12,0,0,1.891618e-12,-2.220446e-16,2.220446e-16,3.994971e-18,0,0,0,0,2.220806e-16,-2.220806e-16,2.220806e-16,-45.515369,2.961074e-16,2.564365e-16,0,0,0,0,0,0
3.200996,3.897479,-10.412585,1.891618e-12,0,0,1.891618e-12,-2.220446e-16,-2.220446e-16,3.983197e-17,0,0,0,0,-1.822126e-16,-2.618766e-16,3.983197e-17,90,5.310929e-17,1.550105e-16,0,0,0,0,0,0
3.248286,3.897479,-10.364135,1.891618e-12,0,0,1.891618e-12,-2.220446e-16,-1.110223e-16,4.652733e-17,0,0,0,0,-9.410224e-17,-2.389647e-16,7.243121e-17,-64.98423,9.657495e-17,1.39e-16,0,0,0,0,0,0
3.295577,3.897479,-10.306435,1.891618e-12,0,0,1.891618e-12,-1.110223e-16,0,-8.305346e-18,0,0,0,0,6.178669e-19,-1.116402e-16,5.612902e-17,-40.74538,7.483869e-17,7.463359e-17,0,0,0,0,0,0
3.342867,3.897479,-10.235714,1.891618e-12,0,0,1.891618e-12,0,2.220446e-16,2.728763e-17,0,0,0,0,2.253489e-16,-3.304276e-18,1.143266e-16,-51.904366,1.524354e-16,1.51346e-16,0,0,0,0,0,0
1.49854,3.850189,-10.022825,1.891618e-12,0,0,1.891618e-12,2.220446e-16,2.220446e-16,1.423508e-17,0,0,0,0,2.362797e-16,2.078095e-16,1.423508e-17,90,1.898011e-17,1.489395e-16,0,0,0,0,0,0
1.54583,3.850189,-10.129105,1.891618e-12,0,0,1.891618e-12,0,2.220446e-16,6.773231e-17,0,0,0,0,2.410747e-16,-1.903006e-17,1.300524e-16,-60.693233,1.734032e-16,1.674207e-16,0,0,0,0,0,0
1.593121,3.850189,-10.218908,1.891618e-12,0,0,1.891618e-12,0,2.220446e-16,1.616293e-17,0,0,0,0,2.23215e-16,-1.170353e-18,1.121927e-16,-49.141544,1.495902e-16,1.492016e-16,0,0,0,0,0,0
1.640411,3.850189,-10.286962,1.891618e-12,0,0,1.891618e-12,0,0,1.463486e-17,0,0,0,0,1.463486e-17,-1.463486e-17,1.463486e-17,90,1.951314e-17,1.689888e-17,0,0,0,0,0,0
1.687701,3.850189,-10.341283,1.891618e-12,0,0,1.891618e-12,0,-1.110223e-16,-1.254934e-18,0,0,0,0,1.418325e-20,-1.110365e-16,5.552533e-17,44.35247,7.403378e-17,7.402905e-17,0,0,0,0,0,0
1.734992,3.850189,-10.387264,1.891618e-12,0,0,1.891618e-12,2.220446e-16,2.220446e-16,1.044862e-17,0,0,0,0,2.324932e-16,2.11596e-16,1.044862e-17,90,1.393149e-17,1.485206e-16,0,0,0,0,0,0
1.782282,3.850189,-10.427763,1.891618e-12,0,0,1.891618e-12,-2.220446e-16,2.220446e-16,6.799989e-18,0,0,0,0,2.221487e-16,-2.221487e-16,2.221487e-16,-45.877052,2.961983e-16,2.565152e-16,0,0,0,0,0,0
1.829573,3.850189,-10.465036,1.891618e-12,0,0,1.891618e-12,0,0,-2.094078e-17,0,0,0,0,2.094078e-17,-2.094078e-17,2.094078e-17,0,2.792103e-17,2.418033e-17,0,0,0,0,0,0
1.876863,3.850189,-10.501626,1.891618e-12,0,0,1.891618e-12,-2.220446e-16,2.220446e-16,-2.423276e-17,0,0,0,0,2.23363e-16,-2.23363e-16,2.23363e-16,-41.885845,2.978173e-16,2.579174e-16,0,0,0,0,0,0
1.924154,3.850189,-10.537634,1.891618e-12,0,0,1.891618e-12,0,0,1.608054e-17,0,0,0,0,1.608054e-17,-1.608054e-17,1.608054e-17,90,2.144072e-17,1.856821e-17,0,0,0,0,0,0
1.971444,3.850189,-10.570246,1.891618e-12,0,0,1.891618e-12,-1.110223e-16,-2.220446e-16,-2.870182e-17,0,0,0,0,-1.040412e-16,-2.290257e-16,6.249226e-17,31.329475,8.332301e-17,1.324122e-16,0,0,0,0,0,0
2.018735,3.850189,-10.596485,1.891618e-12,0,0,1.891618e-12,0,0,-1.920353e-17,0,0,0,0,1.920353e-17,-1.920353e-17,1.920353e-17,0,2.560471e-17,2.217433e-17,0,0,0,0,0,0
2.066025,3.850189,-10.615223,1.891618e-12,0,0,1.891618e-12,4.440892e-16,4.440892e-16,4.765534e-18,0,0,0,0,4.488547e-16,4.393237e-16,4.765534e-18,90,6.354045e-18,2.961106e-16,0,0,0,0,0,0
2.113316,3.850189,-10.628097,1.891618e-12,0,0,1.891618e-12,-1.110223e-16,-1.110223e-16,4.801613e-17,0,0,0,0,-6.300617e-17,-1.590384e-16,4.801613e-17,90,6.402151e-17,9.247846e-17,0,0,0,0,0,0
2.160606,3.850189,-10.639161,1.891618e-12,0,0,1.891618e-12,2.220446e-16,0,-2.46084e-19,0,0,0,0,2.220449e-16,-2.727256e-22,1.110226e-16,44.936501,1.480301e-16,1.4803e-16,0,0,0,0,0,0
2.207896,3.850189,-10.651426,1.891618e-12,0,0,1.891618e-12,-2.220446e-16,2.220446e-16,-8.786786e-18,0,0,0,0,2.222184e-16,-2.222184e-16,2.222184e-16,-43.866932,2.962912e-16,2.565957e-16,0,0,0,0,0,0
2.255187,3.850189,-10.665457,1.891618e-12,0,0,1.891618e-12,0,-1.110223e-16,-1.302176e-17,0,0,0,0,1.506865e-18,-1.125292e-16,5.701802e-17,38.399151,7.602402e-17,7.552674e-17,0,0,0,0,0,0
2.302477,3.850189,-10.680254,1.891618e-12,0,0,1.891618e-12,0,0,-4.535575e-17,0,0,0,0,4.535575e-17,-4.535575e-17,4.535575e-17,0,6.047433e-17,5.237231e-17,0,0,0,0,0,0
2.349768,3.850189,-10.693489,1.891618e-12,0,0,1.891618e-12,2.220446e-16,0,3.741608e-17,0,0,0,0,2.2818e-16,-6.135347e-18,1.171577e-16,54.312271,1.562102e-16,1.542058e-16,0,0,0,0,0,0
2.397058,3.850189,-10.70273,1.891618e-12,0,0,1.891618e-12,2.220446e-16,-1.110223e-16,2.697299e-17,0,0,0,0,2.242148e-16,-1.131925e-16,1.687037e-16,49.600075,2.249383e-16,1.982863e-16,0,0,0,0,0,0
2.444349,3.850189,-10.706116,1.891618e-12,0,0,1.891618e-12,-2.220446e-16,2.220446e-16,-3.942317e-17,0,0,0,0,2.255172e-16,-2.255172e-16,2.255172e-16,-39.966133,3.006895e-16,2.604048e-16,0,0,0,0,0,0
2.491639,3.850189,-10.704852,1.891618e-12,0,0,1.891618e-12,2.220446e-16,0,2.418637e-17,0,0,0,0,2.246486e-16,-2.60398e-18,1.136263e-16,51.144974,1.515017e-16,1.506412e-16,0,0,0,0,0,0
2.53893,3.850189,-10.700532,1.891618e-12,0,0,1.891618e-12,2.220446e-16,0,-2.566055e-17,0,0,0,0,2.249715e-16,-2.926876e-18,1.139492e-16,38.492889,1.519322e-16,1.509661e-16,0,0,0,0,0,0
2.58622,3.850189,-10.695148,1.891618e-12,0,0,1.891618e-12,4.440892e-16,0,2.288486e-17,0,0,0,0,4.452654e-16,-1.17619e-18,2.232208e-16,47.942184,2.976277e-16,2.972364e-16,0,0,0,0,0,0
2.633511,3.850189,-10.689234,1.891618e-12,0,0,1.891618e-12,2.220446e-16,2.220446e-16,-2.814844e-17,0,0,0,0,2.50193e-16,1.938962e-16,2.814844e-17,0,3.753126e-17,1.515561e-16,0,0,0,0,0,0
2.680801,3.850189,-10.681367,1.891618e-12,0,0,1.891618e-12,2.220446e-16,2.220446e-16,-4.268277e-17,0,0,0,0,2.647274e-16,1.793618e-16,4.268277e-17,0,5.691036e-17,1.560189e-16,0,0,0,0,0,0
2.728091,3.850189,-10.669821,1.891618e-12,0,0,1.891618e-12,-1.110223e-16,0,-5.044565e-18,0,0,0,0,2.287406e-19,-1.11251e-16,5.573989e-17,-42.403759,7.431986e-17,7.424373e-17,0,0,0,0,0,0
2.775382,3.850189,-10.654995,1.891618e-12,0,0,1.891618e-12,-1.110223e-16,-4.440892e-16,3.790828e-17,0,0,0,0,-1.067622e-16,-4.483493e-16,1.707935e-16,51.411907,2.277247e-16,2.704305e-16,0,0,0,0,0,0
2.822672,3.850189,-10.638276,1.891618e-12,0,0,1.891618e-12,-3.330669e-16,-1.110223e-16,7.401133e-18,0,0,0,0,-1.107759e-16,-3.333133e-16,1.112687e-16,-46.906948,1.483583e-16,1.960113e-16,0,0,0,0,0,0
2.869963,3.850189,-10.620868,1.891618e-12,0,0,1.891618e-12,2.220446e-16,0,7.214998e-18,0,0,0,0,2.222788e-16,-2.341933e-19,1.112565e-16,46.859123,1.48342e-16,1.48264e-16,0,0,0,0,0,0
2.917253,3.850189,-10.60252,1.891618e-12,0,0,1.891618e-12,0,0,1.629001e-17,0,0,0,0,1.629001e-17,-1.629001e-17,1.629001e-17,90,2.172002e-17,1.881009e-17,0,0,0,0,0,0
2.964544,3.850189,-10.580814,1.891618e-12,0,0,1.891618e-12,0,-1.110223e-16,3.350525e-17,0,0,0,0,9.327801e-18,-1.203501e-16,6.483896e-17,60.557106,8.645193e-17,8.351648e-17,0,0,0,0,0,0
3.011834,3.850189,-10.554733,1.891618e-12,0,0,1.891618e-12,-1.110223e-16,0,-9.446359e-18,0,0,0,0,7.980098e-19,-1.118203e-16,5.630916e-17,-40.17123,7.507888e-17,7.48143e-17,0,0,0,0,0,0
3.059125,3.850189,-10.524229,1.891618e-12,0,0,1.891618e-12,0,-1.110223e-16,4.586675e-17,0,0,0,0,1.64975e-17,-1.275198e-16,7.200865e-17,64.782814,9.601154e-17,9.101215e-17,0,0,0,0,0,0
3.106415,3.850189,-10.490877,1.891618e-12,0,0,1.891618e-12,4.440892e-16,-2.220446e-16,8.780297e-18,0,0,0,0,4.442049e-16,-2.221603e-16,3.331826e-16,45.755039,4.442435e-16,3.917811e-16,0,0,0,0,0,0
3.153705,3.850189,-10.454891,1.891618e-12,0,0,1.891618e-12,2.220446e-16,0,-4.592684e-17,0,0,0,0,2.31169e-16,-9.124384e-18,1.201467e-16,33.763241,1.601956e-16,1.572424e-16,0,0,0,0,0,0
3.200996,3.850189,-10.414929,1.891618e-12,0,0,1.891618e-12,0,-1.110223e-16,1.802601e-17,0,0,0,0,2.853435e-18,-1.138757e-16,5.836459e-17,53.995026,7.781945e-17,7.688595e-17,0,0,0,0,0,0
3.248286,3.850189,-10.366271,1.891618e-12,0,0,1.891618e-12,0,0,8.06557e-18,0,0,0,0,8.06557e-18,-8.06557e-18,8.06557e-18,90,1.075409e-17,9.313318e-18,0,0,0,0,0,0
3.295577,3.850189,-10.308415,1.891618e-12,0,0,1.891618e-12,-1.110223e-16,0,-1.804761e-17,0,0,0,0,2.860111e-18,-1.138824e-16,5.837126e-17,-35.994888,7.782835e-17,7.689271e-17,0,0,0,0,0,0
3.342867,3.850189,-10.237483,1.891618e-12,0,0,1.891618e-12,-2.220446e-16,2.220446e-16,-1.053286e-16,0,0,0,0,2.457599e-16,-2.457599e-16,2.457599e-16,-32.311161,3.276798e-16,2.83779e-16,0,0,0,0,0,0
1.54583,3.802898,-10.126558,1.891618e-12,0,0,1.891618e-12,-3.330669e-16,-3.330669e-16,-2.211842e-17,0,0,0,0,-3.109485e-16,-3.551853e-16,2.211842e-17,0,2.949122e-17,2.235086e-16,0,0,0,0,0,0
1.593121,3.802898,-10.220249,1.891618e-12,0,0,1.891618e-12,0,-4.440892e-16,4.095546e-17,0,0,0,0,3.745467e-18,-4.478347e-16,2.257901e-16,50.225288,3.010534e-16,2.998127e-16,0,0,0,0,0,0
1.640411,3.802898,-10.287098,1.891618e-12,0,0,1.891618e-12,0,2.220446e-16,-8.136639e-18,0,0,0,0,2.223424e-16,-2.977611e-19,1.113201e-16,-42.90419,1.484267e-16,1.483276e-16,0,0,0,0,0,0
1.687701,3.802898,-10.340149,1.891618e-12,0,0,1.891618e-12,2.220446e-16,-1.110223e-16,3.719232e-17,0,0,0,0,2.261472e-16,-1.151249e-16,1.70636e-16,51.294704,2.275147e-16,2.004788e-16,0,0,0,0,0,0
1.734992,3.802898,-10.38581,1.891618e-12,0,0,1.891618e-12,-2.220446e-16,0,1.056744e-17,0,0,0,0,5.017866e-19,-2.225464e-16,1.115241e-16,-47.718601,1.486988e-16,1.485318e-16,0,0,0,0,0,0
1.782282,3.802898,-10.426508,1.891618e-12,0,0,1.891618e-12,0,0,-1.426943e-17,0,0,0,0,1.426943e-17,-1.426943e-17,1.426943e-17,0,1.902591e-17,1.647692e-17,0,0,0,0,0,0
1.829573,3.802898,-10.464293,1.891618e-12,0,0,1.891618e-12,2.220446e-16,0,-1.337001e-17,0,0,0,0,2.228468e-16,-8.021535e-19,1.118245e-16,41.56657,1.490993e-16,1.488326e-16,0,0,0,0,0,0
1.876863,3.802898,-10.501787,1.891618e-12,0,0,1.891618e-12,4.440892e-16,0,-1.242237e-17,0,0,0,0,4.444364e-16,-3.472157e-19,2.223918e-16,43.398952,2.965224e-16,2.964068e-16,0,0,0,0,0,0
1.924154,3.802898,-10.5391,1.891618e-12,0,0,1.891618e-12,2.220446e-16,-4.440892e-16,4.071358e-17,0,0,0,0,2.245238e-16,-4.465684e-16,3.355461e-16,48.484585,4.473948e-16,3.944613e-16,0,0,0,0,0,0
1.971444,3.802898,-10.573326,1.891618e-12,0,0,1.891618e-12,2.220446e-16,2.220446e-16,-3.356525e-17,0,0,0,0,2.556098e-16,1.884793e-16,3.356525e-17,0,4.475367e-17,1.530195e-16,0,0,0,0,0,0
2.018735,3.802898,-10.600649,1.891618e-12,0,0,1.891618e-12,-1.110223e-16,-1.110223e-16,3.776626e-17,0,0,0,0,-7.325604e-17,-1.487886e-16,3.776626e-17,90,5.035501e-17,8.590647e-17,0,0,0,0,0,0
2.066025,3.802898,-10.619639,1.891618e-12,0,0,1.891618e-12,0,-2.220446e-16,-4.185148e-18,0,0,0,0,7.885462e-20,-2.221235e-16,1.111012e-16,43.920586,1.481349e-16,1.481086e-16,0,0,0,0,0,0
2.113316,3.802898,-10.632266,1.891618e-12,0,0,1.891618e-12,-1.110223e-16,0,-2.03546e-17,0,0,0,0,3.61412e-18,-1.146364e-16,5.912527e-17,-34.931614,7.883369e-17,7.765703e-17,0,0,0,0,0,0
2.160606,3.802898,-10.643261,1.891618e-12,0,0,1.891618e-12,-1.110223e-16,2.220446e-16,-4.022917e-17,0,0,0,0,2.268348e-16,-1.158125e-16,1.713236e-16,-38.209671,2.284315e-16,2.012592e-16,0,0,0,0,0,0
2.207896,3.802898,-10.655921,1.891618e-12,0,0,1.891618e-12,0,2.220446e-16,4.134513e-17,0,0,0,0,2.294933e-16,-7.448672e-18,1.18471e-16,-55.212761,1.579613e-16,1.555379e-16,0,0,0,0,0,0
2.255187,3.802898,-10.670347,1.891618e-12,0,0,1.891618e-12,0,2.220446e-16,1.592279e-17,0,0,0,0,2.231806e-16,-1.136009e-18,1.121583e-16,-49.080845,1.495444e-16,1.491672e-16,0,0,0,0,0,0
2.302477,3.802898,-10.684573,1.891618e-12,0,0,1.891618e-12,-1.110223e-16,0,1.15375e-17,0,0,0,0,1.186308e-18,-1.122086e-16,5.669746e-17,-50.870628,7.559661e-17,7.52043e-17,0,0,0,0,0,0
2.349768,3.802898,-10.696448,1.891618e-12,0,0,1.891618e-12,-1.110223e-16,0,-3.569953e-17,0,0,0,0,1.048843e-17,-1.215107e-16,6.599958e-17,-28.627352,8.799944e-17,8.471998e-17,0,0,0,0,0,0
2.397058,3.802898,-10.703843,1.891618e-12,0,0,1.891618e-12,2.220446e-16,-1.110223e-16,-2.098071e-17,0,0,0,0,2.23361e-16,-1.123387e-16,1.678499e-16,41.40971,2.237998e-16,1.973178e-16,0,0,0,0,0,0
2.444349,3.802898,-10.705374,1.891618e-12,0,0,1.891618e-12,-2.220446e-16,-2.220446e-16,-7.729747e-18,0,0,0,0,-2.143149e-16,-2.297744e-16,7.729747e-18,0,1.030633e-17,1.482986e-16,0,0,0,0,0,0
2.491639,3.802898,-10.703038,1.891618e-12,0,0,1.891618e-12,-1.110223e-16,0,-1.550914e-17,0,0,0,0,2.125828e-18,-1.131481e-16,5.763698e-17,-37.195141,7.684931e-17,7.615059e-17,0,0,0,0,0,0
2.53893,3.802898,-10.698818,1.891618e-12,0,0,1.891618e-12,2.220446e-16,2.220446e-16,5.605374e-18,0,0,0,0,2.2765e-16,2.164392e-16,5.605374e-18,90,7.473832e-18,1.481712e-16,0,0,0,0,0,0
2.58622,3.802898,-10.694971,1.891618e-12,0,0,1.891618e-12,2.220446e-16,2.220446e-16,1.476214e-17,0,0,0,0,2.368067e-16,2.072825e-16,1.476214e-17,90,1.968285e-17,1.490079e-16,0,0,0,0,0,0
2.633511,3.802898,-10.691916,1.891618e-12,0,0,1.891618e-12,0,2.220446e-16,6.084583e-18,0,0,0,0,2.222112e-16,-1.66608e-19,1.111889e-16,-46.568481,1.482519e-16,1.481964e-16,0,0,0,0,0,0
2.680801,3.802898,-10.687008,1.891618e-12,0,0,1.891618e-12,0,4.440892e-16,-4.088378e-17,0,0,0,0,4.478217e-16,-3.732476e-18,2.257771e-16,-39.783653,3.010361e-16,2.997997e-16,0,0,0,0,0,0
2.728091,3.802898,-10.677508,1.891618e-12,0,0,1.891618e-12,0,0,-7.286771e-18,0,0,0,0,7.286771e-18,-7.286771e-18,7.286771e-18,0,9.715695e-18,8.414039e-18,0,0,0,0,0,0
2.775382,3.802898,-10.663328,1.891618e-12,0,0,1.891618e-12,-3.330669e-16,0,7.141715e-17,0,0,0,0,1.466754e-17,-3.477344e-16,1.81201e-16,-56.60593,2.416013e-16,2.368636e-16,0,0,0,0,0,0
2.822672,3.802898,-10.645889,1.891618e-12,0,0,1.891618e-12,0,2.220446e-16,8.656608e-18,0,0,0,0,2.223816e-16,-3.369743e-19,1.113593e-16,-47.229218,1.48479e-16,1.483668e-16,0,0,0,0,0,0
2.869963,3.802898,-10.626956,1.891618e-12,0,0,1.891618e-12,-1.110223e-16,-2.220446e-16,2.156327e-17,0,0,0,0,-1.069813e-16,-2.260856e-16,5.955218e-17,55.614311,7.940291e-17,1.305931e-16,0,0,0,0,0,0
2.917253,3.802898,-10.607001,1.891618e-12,0,0,1.891618e-12,-2.220446e-16,0,3.769987e-17,0,0,0,0,6.226286e-18,-2.282709e-16,1.172486e-16,-54.377979,1.563315e-16,1.542979e-16,0,0,0,0,0,0
2.964544,3.802898,-10.584148,1.891618e-12,0,0,1.891618e-12,2.220446e-16,0,4.49767e-18,0,0,0,0,2.221357e-16,-9.106612e-20,1.111134e-16,46.159931,1.481512e-16,1.481208e-16,0,0,0,0,0,0
3.011834,3.802898,-10.557444,1.891618e-12,0,0,1.891618e-12,0,2.220446e-16,-3.431818e-17,0,0,0,0,2.272277e-16,-5.18307e-18,1.162054e-16,-36.411533,1.549405e-16,1.53242e-16,0,0,0,0,0,0
3.059125,3.802898,-10.526606,1.891618e-12,0,0,1.891618e-12,0,-2.220446e-16,6.772949e-18,0,0,0,0,2.064011e-19,-2.22251e-16,1.112287e-16,46.74551,1.483049e-16,1.482362e-16,0,0,0,0,0,0
3.106415,3.802898,-10.492829,1.891618e-12,0,0,1.891618e-12,0,-2.220446e-16,4.635129e-18,0,0,0,0,9.671511e-20,-2.221413e-16,1.11119e-16,46.195343,1.481587e-16,1.481265e-16,0,0,0,0,0,0
3.153705,3.802898,-10.455904,1.891618e-12,0,0,1.891618e-12,-2.220446e-16,2.220446e-16,1.300566e-17,0,0,0,0,2.224252e-16,-2.224252e-16,2.224252e-16,-46.67606,2.965669e-16,2.568344e-16,0,0,0,0,0,0
3.200996,3.802898,-10.41488,1.891618e-12,0,0,1.891618e-12,0,0,-5.381051e-18,0,0,0,0,5.381051e-18,-5.381051e-18,5.381051e-18,0,7.174736e-18,6.213503e-18,0,0,0,0,0,0
3.248286,3.802898,-10.365566,1.891618e-12,0,0,1.891618e-12,-2.220446e-16,-1.110223e-16,-1.384882e-17,0,0,0,0,-1.093209e-16,-2.23746e-16,5.721257e-17,-37.995953,7.628342e-17,1.29191e-16,0,0,0,0,0,0
3.295577,3.802898,-10.30717,1.891618e-12,0,0,1.891618e-12,0,0,6.83347e-18,0,0,0,0,6.83347e-18,-6.83347e-18,6.83347e-18,90,9.111293e-18,7.890611e-18,0,0,0,0,0,0
3.342867,3.802898,-10.236219,1.891618e-12,0,0,1.891618e-12,-2.220446e-16,0,-3.202012e-17,0,0,0,0,4.525262e-18,-2.265699e-16,1.155476e-16,-36.955914,1.540634e-16,1.525774e-16,0,0,0,0,0,0
1.54583,3.755608,-10.128717,1.891618e-12,0,0,1.891618e-12,-1.110223e-16,-1.110223e-16,5.62054e-19,0,0,0,0,-1.104602e-16,-1.115844e-16,5.62054e-19,90,7.494053e-19,7.401772e-17,0,0,0,0,0,0
1.593121,3.755608,-10.220779,1.891618e-12,0,0,1.891618e-12,2.220446e-16,-1.110223e-16,5.786503e-18,0,0,0,0,2.221451e-16,-1.111228e-16,1.66634e-16,45.995022,2.221786e-16,1.959389e-16,0,0,0,0,0,0
1.640411,3.755608,-10.28765,1.891618e-12,0,0,1.891618e-12,2.220446e-16,2.220446e-16,-7.773695e-18,0,0,0,0,2.298183e-16,2.142709e-16,7.773695e-18,0,1.036493e-17,1.483016e-16,0,0,0,0,0,0
1.687701,3.755608,-10.34046,1.891618e-12,0,0,1.891618e-12,2.220446e-16,-1.110223e-16,-1.912631e-17,0,0,0,0,2.231393e-16,-1.12117e-16,1.676282e-16,41.724152,2.235042e-16,1.970664e-16,0,0,0,0,0,0
1.734992,3.755608,-10.386293,1.891618e-12,0,0,1.891618e-12,0,0,-1.545402e-17,0,0,0,0,1.545402e-17,-1.545402e-17,1.545402e-17,0,2.060536e-17,1.784477e-17,0,0,0,0,0,0
1.782282,3.755608,-10.426948,1.891618e-12,0,0,1.891618e-12,0,2.220446e-16,3.642081e-17,0,0,0,0,2.278659e-16,-5.821298e-18,1.168436e-16,-54.081024,1.557915e-16,1.538877e-16,0,0,0,0,0,0
1.829573,3.755608,-10.464577,1.891618e-12,0,0,1.891618e-12,0,0,-4.590996e-18,0,0,0,0,4.590996e-18,-4.590996e-18,4.590996e-18,0,6.121328e-18,5.301226e-18,0,0,0,0,0,0
1.876863,3.755608,-10.502109,1.891618e-12,0,0,1.891618e-12,-2.220446e-16,-1.110223e-16,1.055964e-17,0,0,0,0,-1.100269e-16,-2.2304e-16,5.650658e-17,-50.38522,7.534211e-17,1.287761e-16,0,0,0,0,0,0
1.924154,3.755608,-10.539937,1.891618e-12,0,0,1.891618e-12,0,4.440892e-16,6.524316e-18,0,0,0,0,4.44185e-16,-9.583101e-20,2.221404e-16,-45.841515,2.961873e-16,2.961553e-16,0,0,0,0,0,0
1.971444,3.755608,-10.575337,1.891618e-12,0,0,1.891618e-12,0,2.220446e-16,-4.071476e-17,0,0,0,0,2.292747e-16,-7.230153e-18,1.182525e-16,-34.930351,1.576699e-16,1.55316e-16,0,0,0,0,0,0
2.018735,3.755608,-10.603892,1.891618e-12,0,0,1.891618e-12,-1.110223e-16,0,-6.505419e-18,0,0,0,0,3.79889e-19,-1.114022e-16,5.589104e-17,-41.657963,7.452139e-17,7.439508e-17,0,0,0,0,0,0
2.066025,3.755608,-10.623674,1.891618e-12,0,0,1.891618e-12,-1.110223e-16,2.220446e-16,3.030024e-17,0,0,0,0,2.247787e-16,-1.137564e-16,1.692675e-16,-50.155991,2.2569e-16,1.98926e-16,0,0,0,0,0,0
2.113316,3.755608,-10.636607,1.891618e-12,0,0,1.891618e-12,2.220446e-16,-4.440892e-16,-2.742124e-17,0,0,0,0,2.231715e-16,-4.452161e-16,3.341938e-16,42.64674,4.455917e-16,3.929277e-16,0,0,0,0,0,0
2.160606,3.755608,-10.647638,1.891618e-12,0,0,1.891618e-12,2.220446e-16,-1.110223e-16,2.950922e-19,0,0,0,0,2.220449e-16,-1.110226e-16,1.665337e-16,45.050762,2.220449e-16,1.958252e-16,0,0,0,0,0,0
2.207896,3.755608,-10.660289,1.891618e-12,0,0,1.891618e-12,0,2.220446e-16,3.919294e-17,0,0,0,0,2.287595e-16,-6.714854e-18,1.177372e-16,-54.721989,1.569829e-16,1.547931e-16,0,0,0,0,0,0
2.255187,3.755608,-10.674486,1.891618e-12,0,0,1.891618e-12,0,2.220446e-16,4.983096e-17,0,0,0,0,2.327149e-16,-1.067025e-17,1.216925e-16,-57.086163,1.622567e-16,1.588195e-16,0,0,0,0,0,0
2.302477,3.755608,-10.687559,1.891618e-12,0,0,1.891618e-12,-2.220446e-16,2.220446e-16,-4.063516e-18,0,0,0,0,2.220818e-16,-2.220818e-16,2.220818e-16,-44.475788,2.96109e-16,2.56438e-16,0,0,0,0,0,0
2.349768,3.755608,-10.697541,1.891618e-12,0,0,1.891618e-12,2.220446e-16,0,4.936539e-18,0,0,0,0,2.221543e-16,-1.096959e-19,1.11132e-16,46.272972,1.48176e-16,1.481394e-16,0,0,0,0,0,0
2.397058,3.755608,-10.70238,1.891618e-12,0,0,1.891618e-12,2.220446e-16,2.220446e-16,4.981853e-17,0,0,0,0,2.718631e-16,1.722261e-16,4.981853e-17,90,6.642471e-17,1.588143e-16,0,0,0,0,0,0
2.444349,3.755608,-10.7016,1.891618e-12,0,0,1.891618e-12,0,2.220446e-16,-2.724427e-17,0,0,0,0,2.253385e-16,-3.293934e-18,1.143162e-16,-38.106186,1.524216e-16,1.513356e-16,0,0,0,0,0,0
2.491639,3.755608,-10.697928,1.891618e-12,0,0,1.891618e-12,0,-2.220446e-16,2.709792e-17,0,0,0,0,3.259144e-18,-2.253037e-16,1.142814e-16,51.858185,1.523753e-16,1.513006e-16,0,0,0,0,0,0
2.53893,3.755608,-10.693756,1.891618e-12,0,0,1.891618e-12,0,2.220446e-16,-2.388654e-17,0,0,0,0,2.245851e-16,-2.540536e-18,1.135628e-16,-38.928932,1.514171e-16,1.505774e-16,0,0,0,0,0,0
2.58622,3.755608,-10.691492,1.891618e-12,0,0,1.891618e-12,2.220446e-16,-1.110223e-16,4.361979e-17,0,0,0,0,2.276625e-16,-1.166402e-16,1.721513e-16,52.338821,2.295351e-16,2.021987e-16,0,0,0,0,0,0
2.633511,3.755608,-10.691211,1.891618e-12,0,0,1.891618e-12,2.220446e-16,-2.220446e-16,6.211273e-18,0,0,0,0,2.221315e-16,-2.221315e-16,2.221315e-16,45.801163,2.961753e-16,2.564953e-16,0,0,0,0,0,0
2.680801,3.755608,-10.689079,1.891618e-12,0,0,1.891618e-12,-1.110223e-16,-2.220446e-16,-3.28146e-18,0,0,0,0,-1.109254e-16,-2.221415e-16,5.560806e-17,43.308491,7.414408e-17,1.282535e-16,0,0,0,0,0,0
2.728091,3.755608,-10.681846,1.891618e-12,0,0,1.891618e-12,2.220446e-16,2.220446e-16,4.688036e-17,0,0,0,0,2.68925e-16,1.751642e-16,4.688036e-17,90,6.250715e-17,1.576171e-16,0,0,0,0,0,0
2.775382,3.755608,-10.669001,1.891618e-12,0,0,1.891618e-12,2.220446e-16,2.220446e-16,-8.17649e-18,0,0,0,0,2.302211e-16,2.138681e-16,8.17649e-18,0,1.090199e-17,1.483305e-16,0,0,0,0,0,0
2.822672,3.755608,-10.651828,1.891618e-12,0,0,1.891618e-12,2.220446e-16,-1.110223e-16,4.591182e-17,0,0,0,0,2.282575e-16,-1.172352e-16,1.727463e-16,52.706532,2.303284e-16,2.028742e-16,0,0,0,0,0,0
2.869963,3.755608,-10.632401,1.891618e-12,0,0,1.891618e-12,-1.110223e-16,0,-3.745749e-17,0,0,0,0,1.145564e-17,-1.224779e-16,6.69668e-17,-27.994772,8.928906e-17,8.572603e-17,0,0,0,0,0,0
2.917253,3.755608,-10.61159,1.891618e-12,0,0,1.891618e-12,2.220446e-16,2.220446e-16,-1.887884e-18,0,0,0,0,2.239325e-16,2.201567e-16,1.887884e-18,0,2.517178e-18,1.480458e-16,0,0,0,0,0,0
2.964544,3.755608,-10.587997,1.891618e-12,0,0,1.891618e-12,2.220446e-16,2.220446e-16,-6.196547e-18,0,0,0,0,2.282412e-16,2.158481e-16,6.196547e-18,0,8.262063e-18,1.482026e-16,0,0,0,0,0,0
3.011834,3.755608,-10.560869,1.891618e-12,0,0,1.891618e-12,-2.220446e-16,0,-2.721989e-17,0,0,0,0,3.288125e-18,-2.253327e-16,1.143104e-16,-38.112122,1.524139e-16,1.513298e-16,0,0,0,0,0,0
3.059125,3.755608,-10.529752,1.891618e-12,0,0,1.891618e-12,2.220446e-16,2.220446e-16,-3.61173e-17,0,0,0,0,2.581619e-16,1.859273e-16,3.61173e-17,0,4.81564e-17,1.537923e-16,0,0,0,0,0,0
3.106415,3.755608,-10.495453,1.891618e-12,0,0,1.891618e-12,-2.220446e-16,2.220446e-16,-2.644478e-17,0,0,0,0,2.236138e-16,-2.236138e-16,2.236138e-16,-41.604126,2.981517e-16,2.58207e-16,0,0,0,0,0,0
3.153705,3.755608,-10.457669,1.891618e-12,0,0,1.891618e-12,2.220446e-16,2.220446e-16,-1.360553e-17,0,0,0,0,2.356502e-16,2.084391e-16,1.360553e-17,0,1.814071e-17,1.488611e-16,0,0,0,0,0,0
3.200996,3.755608,-10.415228,1.891618e-12,0,0,1.891618e-12,2.220446e-16,-1.110223e-16,1.924027e-17,0,0,0,0,2.231524e-16,-1.121301e-16,1.676412e-16,48.295197,2.235216e-16,1.970812e-16,0,0,0,0,0,0
3.248286,3.755608,-10.365025,1.891618e-12,0,0,1.891618e-12,2.220446e-16,2.220446e-16,-6.944179e-17,0,0,0,0,2.914864e-16,1.526028e-16,6.944179e-17,0,9.258905e-17,1.683519e-16,0,0,0,0,0,0
3.295577,3.755608,-10.306005,1.891618e-12,0,0,1.891618e-12,2.220446e-16,2.220446e-16,5.631006e-18,0,0,0,0,2.276756e-16,2.164136e-16,5.631006e-18,90,7.508008e-18,1.481725e-16,0,0,0,0,0,0
3.342867,3.755608,-10.235323,1.891618e-12,0,0,1.891618e-12,-2.220446e-16,0,8.614283e-17,0,0,0,0,2.950007e-17,-2.515447e-16,1.405224e-16,-63.904041,1.873632e-16,1.783449e-16,0,0,0,0,0,0
1.49854,3.708317,-10.024833,1.891618e-12,0,0,1.891618e-12,0,2.220446e-16,-1.255762e-17,0,0,0,0,2.227525e-16,-7.07933e-19,1.117302e-16,-41.77338,1.489737e-16,1.487382e-16,0,0,0,0,0,0
1.54583,3.708317,-10.136977,1.891618e-12,0,0,1.891618e-12,2.220446e-16,0,5.737457e-17,0,0,0,0,2.359935e-16,-1.394887e-17,1.249712e-16,58.664604,1.666282e-16,1.621787e-16,0,0,0,0,0,0
1.593121,3.708317,-10.222596,1.891618e-12,0,0,1.891618e-12,0,2.220446e-16,9.989303e-18,0,0,0,0,2.224931e-16,-4.48491e-19,1.114708e-16,-47.57069,1.486277e-16,1.484785e-16,0,0,0,0,0,0
1.640411,3.708317,-10.289589,1.891618e-12,0,0,1.891618e-12,2.220446e-16,0,-4.871247e-17,0,0,0,0,2.322611e-16,-1.021654e-17,1.212388e-16,33.154957,1.616518e-16,1.583562e-16,0,0,0,0,0,0
1.687701,3.708317,-10.343588,1.891618e-12,0,0,1.891618e-12,4.440892e-16,0,-4.806129e-18,0,0,0,0,4.441412e-16,-5.200794e-20,2.220966e-16,44.380016,2.961288e-16,2.961115e-16,0,0,0,0,0,0
1.734992,3.708317,-10.389809,1.891618e-12,0,0,1.891618e-12,-4.440892e-16,-1.110223e-16,-2.236027e-17,0,0,0,0,-1.095279e-16,-4.455836e-16,1.680279e-16,-41.176346,2.240372e-16,2.681105e-16,0,0,0,0,0,0
1.782282,3.708317,-10.429957,1.891618e-12,0,0,1.891618e-12,0,-1.110223e-16,1.585029e-17,0,0,0,0,2.218559e-18,-1.132409e-16,5.772971e-17,52.967907,7.697295e-17,7.624419e-17,0,0,0,0,0,0
1.829573,3.708317,-10.466549,1.891618e-12,0,0,1.891618e-12,0,-2.220446e-16,3.956647e-18,0,0,0,0,7.048175e-20,-2.221151e-16,1.110928e-16,46.020531,1.481237e-16,1.481002e-16,0,0,0,0,0,0
1.876863,3.708317,-10.503096,1.891618e-12,0,0,1.891618e-12,-2.220446e-16,2.220446e-16,4.281357e-17,0,0,0,0,2.261345e-16,-2.261345e-16,2.261345e-16,-50.456783,3.015127e-16,2.611176e-16,0,0,0,0,0,0
1.924154,3.708317,-10.540419,1.891618e-12,0,0,1.891618e-12,0,0,1.708344e-17,0,0,0,0,1.708344e-17,-1.708344e-17,1.708344e-17,90,2.277793e-17,1.972626e-17,0,0,0,0,0,0
1.971444,3.708317,-10.576163,1.891618e-12,0,0,1.891618e-12,0,-1.110223e-16,-1.583394e-18,0,0,0,0,2.257768e-20,-1.110449e-16,5.553373e-17,44.183071,7.404497e-17,7.403745e-17,0,0,0,0,0,0
2.018735,3.708317,-10.605761,1.891618e-12,0,0,1.891618e-12,2.220446e-16,-1.110223e-16,-4.195179e-17,0,0,0,0,2.272474e-16,-1.162251e-16,1.717363e-16,37.930347,2.289817e-16,2.017276e-16,0,0,0,0,0,0
2.066025,3.708317,-10.626695,1.891618e-12,0,0,1.891618e-12,-3.330669e-16,2.220446e-16,-6.016061e-17,0,0,0,0,2.284897e-16,-3.39512e-16,2.840009e-16,-38.88512,3.786678e-16,3.300175e-16,0,0,0,0,0,0
2.113316,3.708317,-10.640429,1.891618e-12,0,0,1.891618e-12,-2.220446e-16,2.220446e-16,2.432635e-17,0,0,0,0,2.233732e-16,-2.233732e-16,2.233732e-16,-48.126087,2.978309e-16,2.579291e-16,0,0,0,0,0,0
2.160606,3.708317,-10.651824,1.891618e-12,0,0,1.891618e-12,2.220446e-16,0,2.604533e-17,0,0,0,0,2.250587e-16,-3.014142e-18,1.140364e-16,51.601292,1.520486e-16,1.510539e-16,0,0,0,0,0,0
2.207896,3.708317,-10.664611,1.891618e-12,0,0,1.891618e-12,0,2.220446e-16,-5.528635e-18,0,0,0,0,2.221822e-16,-1.375709e-19,1.111599e-16,-43.574585,1.482132e-16,1.481673e-16,0,0,0,0,0,0
2.255187,3.708317,-10.678629,1.891618e-12,0,0,1.891618e-12,2.220446e-16,-1.110223e-16,-1.039882e-17,0,0,0,0,2.22369e-16,-1.113466e-16,1.668578e-16,43.213463,2.224771e-16,1.961927e-16,0,0,0,0,0,0
2.302477,3.708317,-10.690935,1.891618e-12,0,0,1.891618e-12,-1.110223e-16,0,-2.293846e-17,0,0,0,0,4.552656e-18,-1.15575e-16,6.006381e-17,-33.774239,8.008508e-17,7.861148e-17,0,0,0,0,0,0
2.349768,3.708317,-10.699361,1.891618e-12,0,0,1.891618e-12,-2.220446e-16,-2.220446e-16,-1.250323e-17,0,0,0,0,-2.095414e-16,-2.345478e-16,1.250323e-17,0,1.667097e-17,1.487321e-16,0,0,0,0,0,0
2.397058,3.708317,-10.701897,1.891618e-12,0,0,1.891618e-12,2.220446e-16,-1.110223e-16,-1.325667e-17,0,0,0,0,2.225714e-16,-1.115491e-16,1.670603e-16,42.724323,2.22747e-16,1.964223e-16,0,0,0,0,0,0
2.444349,3.708317,-10.699042,1.891618e-12,0,0,1.891618e-12,2.220446e-16,2.220446e-16,2.204128e-17,0,0,0,0,2.440859e-16,2.000033e-16,2.204128e-17,90,2.938837e-17,1.502017e-16,0,0,0,0,0,0
2.491639,3.708317,-10.694027,1.891618e-12,0,0,1.891618e-12,2.220446e-16,0,7.036688e-18,0,0,0,0,2.222674e-16,-2.227721e-19,1.112451e-16,46.813301,1.483268e-16,1.482526e-16,0,0,0,0,0,0
2.53893,3.708317,-10.689555,1.891618e-12,0,0,1.891618e-12,0,0,5.133281e-17,0,0,0,0,5.133281e-17,-5.133281e-17,5.133281e-17,90,6.844374e-17,5.927402e-17,0,0,0,0,0,0
2.58622,3.708317,-10.688021,1.891618e-12,0,0,1.891618e-12,0,2.220446e-16,1.532677e-17,0,0,0,0,2.230975e-16,-1.052947e-18,1.120752e-16,-48.930038,1.494337e-16,1.490839e-16,0,0,0,0,0,0
2.633511,3.708317,-10.688959,1.891618e-12,0,0,1.891618e-12,0,2.220446e-16,-5.018495e-18,0,0,0,0,2.22158e-16,-1.133666e-19,1.111357e-16,-43.705921,1.481809e-16,1.481431e-16,0,0,0,0,0,0
2.680801,3.708317,-10.688071,1.891618e-12,0,0,1.891618e-12,0,2.220446e-16,3.165109e-17,0,0,0,0,2.264682e-16,-4.423541e-18,1.154458e-16,-52.956097,1.539278e-16,1.524747e-16,0,0,0,0,0,0
2.728091,3.708317,-10.682055,1.891618e-12,0,0,1.891618e-12,-1.110223e-16,-1.110223e-16,-5.252558e-18,0,0,0,0,-1.057697e-16,-1.162749e-16,5.252558e-18,0,7.003411e-18,7.426296e-17,0,0,0,0,0,0
2.775382,3.708317,-10.670446,1.891618e-12,0,0,1.891618e-12,-1.110223e-16,-2.220446e-16,4.05832e-17,0,0,0,0,-9.776948e-17,-2.352974e-16,6.876397e-17,63.08493,9.168529e-17,1.364939e-16,0,0,0,0,0,0
2.822672,3.708317,-10.654277,1.891618e-12,0,0,1.891618e-12,-2.220446e-16,2.220446e-16,1.666547e-17,0,0,0,0,2.226691e-16,-2.226691e-16,2.226691e-16,-47.146133,2.968922e-16,2.571162e-16,0,0,0,0,0,0
2.869963,3.708317,-10.635522,1.891618e-12,0,0,1.891618e-12,0,0,9.068236e-18,0,0,0,0,9.068236e-18,-9.068236e-18,9.068236e-18,90,1.209098e-17,1.04711e-17,0,0,0,0,0,0
2.917253,3.708317,-10.615037,1.891618e-12,0,0,1.891618e-12,-2.220446e-16,-2.220446e-16,-2.004809e-19,0,0,0,0,-2.218441e-16,-2.222451e-16,2.004809e-19,0,2.673079e-19,1.480299e-16,0,0,0,0,0,0
2.964544,3.708317,-10.591661,1.891618e-12,0,0,1.891618e-12,0,-1.110223e-16,5.068768e-18,0,0,0,0,2.309363e-19,-1.112532e-16,5.574209e-17,47.608627,7.432278e-17,7.424593e-17,0,0,0,0,0,0
3.011834,3.708317,-10.564815,1.891618e-12,0,0,1.891618e-12,-2.220446e-16,-2.220446e-16,-2.237988e-17,0,0,0,0,-1.996647e-16,-2.444245e-16,2.237988e-17,0,2.983984e-17,1.502685e-16,0,0,0,0,0,0
3.059125,3.708317,-10.534185,1.891618e-12,0,0,1.891618e-12,0,0,-1.66736e-17,0,0,0,0,1.66736e-17,-1.66736e-17,1.66736e-17,0,2.223147e-17,1.925302e-17,0,0,0,0,0,0
3.106415,3.708317,-10.499652,1.891618e-12,0,0,1.891618e-12,-4.440892e-16,2.220446e-16,-1.465473e-17,0,0,0,0,2.223668e-16,-4.444115e-16,3.333892e-16,-43.740326,4.445189e-16,3.920153e-16,0,0,0,0,0,0
3.153705,3.708317,-10.461381,1.891618e-12,0,0,1.891618e-12,-2.220446e-16,0,-5.709782e-18,0,0,0,0,1.467276e-19,-2.221913e-16,1.11169e-16,-43.527962,1.482254e-16,1.481765e-16,0,0,0,0,0,0
3.200996,3.708317,-10.418174,1.891618e-12,0,0,1.891618e-12,2.220446e-16,-1.110223e-16,1.875019e-17,0,0,0,0,2.230968e-16,-1.120745e-16,1.675857e-16,48.211971,2.234476e-16,1.970182e-16,0,0,0,0,0,0
3.248286,3.708317,-10.367264,1.891618e-12,0,0,1.891618e-12,0,4.440892e-16,1.88998e-17,0,0,0,0,4.448921e-16,-8.028967e-19,2.228475e-16,-47.432564,2.9713e-16,2.968627e-16,0,0,0,0,0,0
3.295577,3.708317,-10.307969,1.891618e-12,0,0,1.891618e-12,0,2.220446e-16,-8.915271e-18,0,0,0,0,2.22402e-16,-3.573802e-19,1.113797e-16,-42.704453,1.485063e-16,1.483873e-16,0,0,0,0,0,0
3.342867,3.708317,-10.237678,1.891618e-12,0,0,1.891618e-12,-6.661338e-16,2.220446e-16,-4.618106e-18,0,0,0,0,2.220686e-16,-6.661578e-16,4.441132e-16,-44.702099,5.921509e-16,5.337554e-16,0,0,0,0,0,0
1.49854,3.661027,-10.033459,1.891618e-12,0,0,1.891618e-12,0,2.220446e-16,-7.299255e-17,0,0,0,0,2.438901e-16,-2.184554e-17,1.328678e-16,-28.338371,1.771571e-16,1.703429e-16,0,0,0,0,0,0
1.54583,3.661027,-10.140696,1.891618e-12,0,0,1.891618e-12,-3.330669e-16,0,-8.082947e-17,0,0,0,0,1.857947e-17,-3.516464e-16,1.851129e-16,-32.054848,2.468172e-16,2.408631e-16,0,0,0,0,0,0
1.593121,3.661027,-10.224437,1.891618e-12,0,0,1.891618e-12,2.220446e-16,-1.110223e-16,-3.78499e-17,0,0,0,0,2.262917e-16,-1.152694e-16,1.707806e-16,38.597641,2.277074e-16,2.006429e-16,0,0,0,0,0,0
1.640411,3.661027,-10.292199,1.891618e-12,0,0,1.891618e-12,-1.110223e-16,2.220446e-16,-8.923896e-17,0,0,0,0,2.444476e-16,-1.334253e-16,1.889365e-16,-30.907415,2.519153e-16,2.212816e-16,0,0,0,0,0,0
1.687701,3.661027,-10.347952,1.891618e-12,0,0,1.891618e-12,0,-1.110223e-16,3.887386e-17,0,0,0,0,1.225805e-17,-1.232804e-16,6.776921e-17,62.501572,9.035894e-17,8.656272e-17,0,0,0,0,0,0
1.734992,3.661027,-10.394687,1.891618e-12,0,0,1.891618e-12,0,2.220446e-16,1.034371e-17,0,0,0,0,2.225254e-16,-4.808093e-19,1.115031e-16,-47.661381,1.486708e-16,1.485108e-16,0,0,0,0,0,0
1.782282,3.661027,-10.434136,1.891618e-12,0,0,1.891618e-12,-2.220446e-16,0,-2.211592e-18,0,0,0,0,2.202556e-20,-2.220666e-16,1.110443e-16,-44.429401,1.480591e-16,1.480518e-16,0,0,0,0,0,0
1.829573,3.661027,-10.469263,1.891618e-12,0,0,1.891618e-12,2.220446e-16,0,5.148081e-17,0,0,0,0,2.333997e-16,-1.135509e-17,1.223774e-16,57.43853,1.631699e-16,1.595196e-16,0,0,0,0,0,0
1.876863,3.661027,-10.504102,1.891618e-12,0,0,1.891618e-12,0,2.220446e-16,7.985618e-17,0,0,0,0,2.477811e-16,-2.573646e-17,1.367588e-16,-62.863361,1.82345e-16,1.744004e-16,0,0,0,0,0,0
1.924154,3.661027,-10.540162,1.891618e-12,0,0,1.891618e-12,0,-1.110223e-16,-1.744878e-17,0,0,0,0,2.677747e-18,-1.137001e-16,5.81889e-17,36.275269,7.75852e-17,7.67082e-17,0,0,0,0,0,0
1.971444,3.661027,-10.57558,1.891618e-12,0,0,1.891618e-12,2.220446e-16,-1.110223e-16,3.779972e-17,0,0,0,0,2.262806e-16,-1.152583e-16,1.707695e-16,51.39415,2.276926e-16,2.006302e-16,0,0,0,0,0,0
2.018735,3.661027,-10.605702,1.891618e-12,0,0,1.891618e-12,2.220446e-16,0,-3.248035e-17,0,0,0,0,2.266983e-16,-4.653643e-18,1.156759e-16,36.846397,1.542346e-16,1.52707e-16,0,0,0,0,0,0
2.066025,3.661027,-10.627724,1.891618e-12,0,0,1.891618e-12,2.220446e-16,2.220446e-16,-2.829787e-17,0,0,0,0,2.503425e-16,1.937467e-16,2.829787e-17,0,3.773049e-17,1.515932e-16,0,0,0,0,0,0
2.113316,3.661027,-10.642525,1.891618e-12,0,0,1.891618e-12,0,0,3.789211e-17,0,0,0,0,3.789211e-17,-3.789211e-17,3.789211e-17,90,5.052282e-17,4.375404e-17,0,0,0,0,0,0
2.160606,3.661027,-10.65494,1.891618e-12,0,0,1.891618e-12,2.220446e-16,2.220446e-16,-1.478354e-17,0,0,0,0,2.368282e-16,2.072611e-16,1.478354e-17,0,1.971139e-17,1.490108e-16,0,0,0,0,0,0
2.207896,3.661027,-10.668581,1.891618e-12,0,0,1.891618e-12,-2.220446e-16,2.220446e-16,1.808969e-17,0,0,0,0,2.227803e-16,-2.227803e-16,2.227803e-16,-47.328766,2.970403e-16,2.572445e-16,0,0,0,0,0,0
2.255187,3.661027,-10.6833,1.891618e-12,0,0,1.891618e-12,-2.220446e-16,0,1.3323e-17,0,0,0,0,7.965425e-19,-2.228412e-16,1.118188e-16,-48.421471,1.490918e-16,1.48827e-16,0,0,0,0,0,0
2.302477,3.661027,-10.696025,1.891618e-12,0,0,1.891618e-12,-1.110223e-16,-1.110223e-16,3.958984e-17,0,0,0,0,-7.143246e-17,-1.506121e-16,3.958984e-17,90,5.278645e-17,8.69943e-17,0,0,0,0,0,0
2.349768,3.661027,-10.704261,1.891618e-12,0,0,1.891618e-12,2.220446e-16,-1.110223e-16,3.583544e-17,0,0,0,0,2.258566e-16,-1.148343e-16,1.703454e-16,51.071995,2.271273e-16,2.001491e-16,0,0,0,0,0,0
2.397058,3.661027,-10.705867,1.891618e-12,0,0,1.891618e-12,-4.440892e-16,0,1.604779e-17,0,0,0,0,5.791539e-19,-4.446684e-16,2.226238e-16,-47.066868,2.968317e-16,2.966388e-16,0,0,0,0,0,0
2.444349,3.661027,-10.702043,1.891618e-12,0,0,1.891618e-12,0,-1.110223e-16,-2.031459e-17,0,0,0,0,3.600358e-18,-1.146227e-16,5.911151e-17,34.949821,7.881534e-17,7.764306e-17,0,0,0,0,0,0
2.491639,3.661027,-10.695937,1.891618e-12,0,0,1.891618e-12,2.220446e-16,0,5.951101e-19,0,0,0,0,2.220462e-16,-1.594965e-21,1.110239e-16,45.153561,1.480319e-16,1.480313e-16,0,0,0,0,0,0
2.53893,3.661027,-10.690704,1.891618e-12,0,0,1.891618e-12,0,2.220446e-16,-7.561047e-18,0,0,0,0,2.223018e-16,-2.571704e-19,1.112795e-16,-43.051975,1.483726e-16,1.48287e-16,0,0,0,0,0,0
2.58622,3.661027,-10.688509,1.891618e-12,0,0,1.891618e-12,-1.110223e-16,0,-5.144547e-17,0,0,0,0,2.017322e-17,-1.311955e-16,7.568437e-17,-23.588451,1.009125e-16,9.490548e-17,0,0,0,0,0,0
2.633511,3.661027,-10.688765,1.891618e-12,0,0,1.891618e-12,2.220446e-16,-1.110223e-16,-3.191386e-17,0,0,0,0,2.25075e-16,-1.140527e-16,1.695638e-16,39.575787,2.260851e-16,1.992621e-16,0,0,0,0,0,0
2.680801,3.661027,-10.687127,1.891618e-12,0,0,1.891618e-12,4.440892e-16,0,1.836187e-17,0,0,0,0,4.448471e-16,-7.579193e-19,2.228025e-16,47.363644,2.9707e-16,2.968177e-16,0,0,0,0,0,0
2.728091,3.661027,-10.680633,1.891618e-12,0,0,1.891618e-12,4.440892e-16,0,-9.470661e-18,0,0,0,0,4.442911e-16,-2.018799e-19,2.222465e-16,43.778847,2.963287e-16,2.962614e-16,0,0,0,0,0,0
2.775382,3.661027,-10.6692,1.891618e-12,0,0,1.891618e-12,-3.330669e-16,0,-1.645335e-17,0,0,0,0,8.10814e-19,-3.338777e-16,1.673443e-16,-42.178772,2.231257e-16,2.228559e-16,0,0,0,0,0,0
2.822672,3.661027,-10.653926,1.891618e-12,0,0,1.891618e-12,0,0,-7.291191e-17,0,0,0,0,7.291191e-17,-7.291191e-17,7.291191e-17,0,9.721588e-17,8.419143e-17,0,0,0,0,0,0
2.869963,3.661027,-10.636316,1.891618e-12,0,0,1.891618e-12,2.220446e-16,0,-4.020199e-18,0,0,0,0,2.221174e-16,-7.276333e-20,1.110951e-16,43.963093,1.481268e-16,1.481025e-16,0,0,0,0,0,0
2.917253,3.661027,-10.617061,1.891618e-12,0,0,1.891618e-12,-1.110223e-16,0,2.200742e-17,0,0,0,0,4.203289e-18,-1.152256e-16,5.971444e-17,-55.812935,7.961925e-17,7.825579e-17,0,0,0,0,0,0
2.964544,3.661027,-10.594642,1.891618e-12,0,0,1.891618e-12,0,0,1.04467e-17,0,0,0,0,1.04467e-17,-1.04467e-17,1.04467e-17,90,1.392893e-17,1.206281e-17,0,0,0,0,0,0
3.011834,3.661027,-10.568574,1.891618e-12,0,0,1.891618e-12,-1.110223e-16,-1.110223e-16,4.371797e-17,0,0,0,0,-6.730433e-17,-1.547403e-16,4.371797e-17,90,5.829062e-17,8.959101e-17,0,0,0,0,0,0
3.059125,3.661027,-10.538742,1.891618e-12,0,0,1.891618e-12,-2.220446e-16,-2.220446e-16,-5.773871e-17,0,0,0,0,-1.643059e-16,-2.797833e-16,5.773871e-17,0,7.698495e-17,1.623509e-16,0,0,0,0,0,0
3.106415,3.661027,-10.504399,1.891618e-12,0,0,1.891618e-12,2.220446e-16,0,4.021226e-17,0,0,0,0,2.291027e-16,-7.058084e-18,1.180804e-16,54.955189,1.574405e-16,1.551414e-16,0,0,0,0,0,0
3.153705,3.661027,-10.46585,1.891618e-12,0,0,1.891618e-12,0,2.220446e-16,-1.917295e-17,0,0,0,0,2.23688e-16,-1.64337e-18,1.126657e-16,-40.100983,1.502209e-16,1.496761e-16,0,0,0,0,0,0
3.200996,3.661027,-10.422635,1.891618e-12,0,0,1.891618e-12,0,0,-5.257812e-17,0,0,0,0,5.257812e-17,-5.257812e-17,5.257812e-17,0,7.010417e-17,6.071199e-17,0,0,0,0,0,0
3.248286,3.661027,-10.371688,1.891618e-12,0,0,1.891618e-12,0,2.220446e-16,2.652563e-17,0,0,0,0,2.251694e-16,-3.124798e-18,1.141471e-16,-51.718647,1.521961e-16,1.511653e-16,0,0,0,0,0,0
3.295577,3.661027,-10.312721,1.891618e-12,0,0,1.891618e-12,0,2.220446e-16,4.917641e-17,0,0,0,0,2.324483e-16,-1.040369e-17,1.21426e-16,-56.945274,1.619013e-16,1.585472e-16,0,0,0,0,0,0
3.342867,3.661027,-10.243042,1.891618e-12,0,0,1.891618e-12,0,2.220446e-16,6.39532e-17,0,0,0,0,2.391471e-16,-1.710249e-17,1.281248e-16,-59.971813,1.708331e-16,1.654272e-16,0,0,0,0,0,0
1.49854,3.613737,-10.037583,1.891618e-12,0,0,1.891618e-12,0,-3.330669e-16,-1.467567e-18,0,0,0,0,6.466298e-21,-3.330734e-16,1.665399e-16,44.747547,2.220532e-16,2.220511e-16,0,0,0,0,0,0
1.54583,3.613737,-10.144325,1.891618e-12,0,0,1.891618e-12,-1.110223e-16,-1.110223e-16,-1.484636e-17,0,0,0,0,-9.617595e-17,-1.258687e-16,1.484636e-17,0,1.979514e-17,7.597425e-17,0,0,0,0,0,0
1.593121,3.613737,-10.227405,1.891618e-12,0,0,1.891618e-12,6.661338e-16,2.220446e-16,2.765781e-17,0,0,0,0,6.678497e-16,2.203287e-16,2.237605e-16,48.550087,2.983473e-16,3.929498e-16,0,0,0,0,0,0
1.640411,3.613737,-10.295135,1.891618e-12,0,0,1.891618e-12,2.220446e-16,-1.110223e-16,1.468646e-17,0,0,0,0,2.226909e-16,-1.116686e-16,1.671798e-16,47.519917,2.229064e-16,1.965579e-16,0,0,0,0,0,0
1.687701,3.613737,-10.351451,1.891618e-12,0,0,1.891618e-12,2.220446e-16,2.220446e-16,2.049617e-17,0,0,0,0,2.425408e-16,2.015484e-16,2.049617e-17,90,2.732822e-17,1.499097e-16,0,0,0,0,0,0
1.734992,3.613737,-10.398932,1.891618e-12,0,0,1.891618e-12,0,4.440892e-16,-1.384623e-17,0,0,0,0,4.445205e-16,-4.312917e-19,2.224759e-16,-43.215889,2.966345e-16,2.964909e-16,0,0,0,0,0,0
1.782282,3.613737,-10.438387,1.891618e-12,0,0,1.891618e-12,2.220446e-16,-4.440892e-16,-4.451719e-17,0,0,0,0,2.250065e-16,-4.470511e-16,3.360288e-16,41.193531,4.480384e-16,3.950089e-16,0,0,0,0,0,0
1.829573,3.613737,-10.47258,1.891618e-12,0,0,1.891618e-12,2.220446e-16,4.440892e-16,1.651374e-17,0,0,0,0,4.453106e-16,2.208232e-16,1.122437e-16,-49.230145,1.496583e-16,2.571031e-16,0,0,0,0,0,0
1.876863,3.613737,-10.505634,1.891618e-12,0,0,1.891618e-12,0,4.440892e-16,3.736064e-18,0,0,0,0,4.441207e-16,-3.142879e-20,2.22076e-16,-45.481976,2.961014e-16,2.960909e-16,0,0,0,0,0,0
1.924154,3.613737,-10.539882,1.891618e-12,0,0,1.891618e-12,2.220446e-16,2.220446e-16,1.722219e-17,0,0,0,0,2.392668e-16,2.048224e-16,1.722219e-17,90,2.296292e-17,1.493595e-16,0,0,0,0,0,0
1.971444,3.613737,-10.574149,1.891618e-12,0,0,1.891618e-12,0,2.220446e-16,-2.893995e-18,0,0,0,0,2.220823e-16,-3.771219e-20,1.1106e-16,-44.25341,1.4808e-16,1.480674e-16,0,0,0,0,0,0
2.018735,3.613737,-10.604112,1.891618e-12,0,0,1.891618e-12,0,-1.110223e-16,3.899609e-17,0,0,0,0,1.232824e-17,-1.233505e-16,6.783939e-17,62.54385,9.045252e-17,8.663599e-17,0,0,0,0,0,0
2.066025,3.613737,-10.626872,1.891618e-12,0,0,1.891618e-12,-1.110223e-16,-1.110223e-16,-2.993021e-17,0,0,0,0,-8.109209e-17,-1.409525e-16,2.993021e-17,0,3.990695e-17,8.168613e-17,0,0,0,0,0,0
2.113316,3.613737,-10.642859,1.891618e-12,0,0,1.891618e-12,0,0,-1.823206e-17,0,0,0,0,1.823206e-17,-1.823206e-17,1.823206e-17,0,2.430941e-17,2.105257e-17,0,0,0,0,0,0
2.160606,3.613737,-10.656635,1.891618e-12,0,0,1.891618e-12,2.220446e-16,-1.110223e-16,-1.008543e-17,0,0,0,0,2.223497e-16,-1.113274e-16,1.668386e-16,43.267174,2.224514e-16,1.961709e-16,0,0,0,0,0,0
2.207896,3.613737,-10.671574,1.891618e-12,0,0,1.891618e-12,-1.110223e-16,0,5.974637e-18,0,0,0,0,3.205978e-19,-1.113429e-16,5.583175e-17,-48.071533,7.444233e-17,7.43357e-17,0,0,0,0,0,0
2.255187,3.613737,-10.687637,1.891618e-12,0,0,1.891618e-12,-1.110223e-16,4.440892e-16,3.7361e-19,0,0,0,0,4.440895e-16,-1.110226e-16,2.77556e-16,-45.038563,3.700747e-16,3.39179e-16,0,0,0,0,0,0
2.302477,3.613737,-10.701946,1.891618e-12,0,0,1.891618e-12,-1.110223e-16,-1.110223e-16,-2.010753e-17,0,0,0,0,-9.091477e-17,-1.311298e-16,2.010753e-17,0,2.681004e-17,7.757116e-17,0,0,0,0,0,0
2.349768,3.613737,-10.711555,1.891618e-12,0,0,1.891618e-12,0,0,2.731473e-17,0,0,0,0,2.731473e-17,-2.731473e-17,2.731473e-17,90,3.641965e-17,3.154034e-17,0,0,0,0,0,0
2.397058,3.613737,-10.714034,1.891618e-12,0,0,1.891618e-12,-1.110223e-16,0,4.719633e-17,0,0,0,0,1.73516e-17,-1.283739e-16,7.286275e-17,-65.185822,9.715034e-17,9.191405e-17,0,0,0,0,0,0
2.444349,3.613737,-10.710336,1.891618e-12,0,0,1.891618e-12,0,0,-8.437879e-18,0,0,0,0,8.437879e-18,-8.437879e-18,8.437879e-18,0,1.125051e-17,9.743224e-18,0,0,0,0,0,0
2.491639,3.613737,-10.703695,1.891618e-12,0,0,1.891618e-12,2.220446e-16,-1.110223e-16,1.093883e-18,0,0,0,0,2.220482e-16,-1.110259e-16,1.66537e-16,45.188171,2.220494e-16,1.95829e-16,0,0,0,0,0,0
2.53893,3.613737,-10.697416,1.891618e-12,0,0,1.891618e-12,-4.440892e-16,2.220446e-16,4.751435e-17,0,0,0,0,2.254167e-16,-4.474612e-16,3.36439e-16,-49.059433,4.485853e-16,3.954741e-16,0,0,0,0,0,0
2.58622,3.613737,-10.693694,1.891618e-12,0,0,1.891618e-12,2.220446e-16,2.220446e-16,-2.801553e-17,0,0,0,0,2.500601e-16,1.940291e-16,2.801553e-17,0,3.735403e-17,1.515232e-16,0,0,0,0,0,0
2.633511,3.613737,-10.692122,1.891618e-12,0,0,1.891618e-12,2.220446e-16,2.220446e-16,2.081672e-17,0,0,0,0,2.428613e-16,2.012279e-16,2.081672e-17,90,2.775563e-17,1.499686e-16,0,0,0,0,0,0
2.680801,3.613737,-10.688432,1.891618e-12,0,0,1.891618e-12,2.220446e-16,0,1.288736e-17,0,0,0,0,2.227901e-16,-7.454731e-19,1.117678e-16,48.3106,1.490237e-16,1.487758e-16,0,0,0,0,0,0
2.728091,3.613737,-10.680056,1.891618e-12,0,0,1.891618e-12,2.220446e-16,-1.110223e-16,-2.330072e-17,0,0,0,0,2.236668e-16,-1.126445e-16,1.681556e-16,41.017551,2.242075e-16,1.976646e-16,0,0,0,0,0,0
2.775382,3.613737,-10.667659,1.891618e-12,0,0,1.891618e-12,-1.110223e-16,0,-1.033317e-17,0,0,0,0,9.535479e-19,-1.119758e-16,5.64647e-17,-39.727661,7.528627e-17,7.497044e-17,0,0,0,0,0,0
2.822672,3.613737,-10.652458,1.891618e-12,0,0,1.891618e-12,0,2.220446e-16,8.794188e-18,0,0,0,0,2.223924e-16,-3.477536e-19,1.113701e-16,-47.2645,1.484934e-16,1.483776e-16,0,0,0,0,0,0
2.869963,3.613737,-10.635678,1.891618e-12,0,0,1.891618e-12,0,-1.110223e-16,-1.544827e-17,0,0,0,0,2.109479e-18,-1.131318e-16,5.762063e-17,37.224289,7.682751e-17,7.613409e-17,0,0,0,0,0,0
2.917253,3.613737,-10.617693,1.891618e-12,0,0,1.891618e-12,0,-1.110223e-16,5.337834e-17,0,0,0,0,2.150011e-17,-1.325224e-16,7.701126e-17,66.93895,1.026817e-16,9.631821e-17,0,0,0,0,0,0
2.964544,3.613737,-10.596197,1.891618e-12,0,0,1.891618e-12,4.440892e-16,0,-4.019414e-17,0,0,0,0,4.476978e-16,-3.608615e-18,2.256532e-16,39.869762,3.008709e-16,2.996753e-16,0,0,0,0,0,0
3.011834,3.613737,-10.570554,1.891618e-12,0,0,1.891618e-12,4.440892e-16,-1.110223e-16,7.888319e-18,0,0,0,0,4.442013e-16,-1.111344e-16,2.776678e-16,45.813972,3.702238e-16,3.39301e-16,0,0,0,0,0,0
3.059125,3.613737,-10.541126,1.891618e-12,0,0,1.891618e-12,2.220446e-16,-1.110223e-16,-2.99477e-18,0,0,0,0,2.220715e-16,-1.110492e-16,1.665604e-16,44.484882,2.220805e-16,1.958555e-16,0,0,0,0,0,0
3.106415,3.613737,-10.507331,1.891618e-12,0,0,1.891618e-12,-2.220446e-16,2.220446e-16,-2.495431e-17,0,0,0,0,2.234424e-16,-2.234424e-16,2.234424e-16,-41.793884,2.979232e-16,2.580091e-16,0,0,0,0,0,0
3.153705,3.613737,-10.469152,1.891618e-12,0,0,1.891618e-12,-2.220446e-16,-1.110223e-16,6.626329e-17,0,0,0,0,-8.009092e-17,-2.52976e-16,8.644254e-17,-70.022942,1.152567e-16,1.492951e-16,0,0,0,0,0,0
3.200996,3.613737,-10.426232,1.891618e-12,0,0,1.891618e-12,0,-4.440892e-16,3.164278e-17,0,0,0,0,2.243318e-18,-4.463325e-16,2.242879e-16,49.055202,2.990506e-16,2.983056e-16,0,0,0,0,0,0
3.248286,3.613737,-10.375675,1.891618e-12,0,0,1.891618e-12,-2.220446e-16,0,4.066624e-17,0,0,0,0,7.213457e-18,-2.292581e-16,1.182358e-16,-55.058613,1.576477e-16,1.55299e-16,0,0,0,0,0,0
3.295577,3.613737,-10.317274,1.891618e-12,0,0,1.891618e-12,0,2.220446e-16,-6.375095e-18,0,0,0,0,2.222275e-16,-1.82884e-19,1.112052e-16,-43.356792,1.482736e-16,1.482127e-16,0,0,0,0,0,0
3.342867,3.613737,-10.249006,1.891618e-12,0,0,1.891618e-12,-2.220446e-16,-1.110223e-16,-1.676137e-17,0,0,0,0,-1.08547e-16,-2.245199e-16,5.798647e-17,-36.599258,7.73153e-17,1.296503e-16,0,0,0,0,0,0
1.49854,3.566446,-10.040809,1.891618e-12,0,0,1.891618e-12,0,2.220446e-16,-4.988655e-18,0,0,0,0,2.221566e-16,-1.120231e-19,1.111343e-16,-43.713608,1.481791e-16,1.481418e-16,0,0,0,0,0,0
1.54583,3.566446,-10.146319,1.891618e-12,0,0,1.891618e-12,-1.110223e-16,-1.110223e-16,8.88943e-17,0,0,0,0,-2.2128e-17,-1.999166e-16,8.88943e-17,90,1.185257e-16,1.265483e-16,0,0,0,0,0,0
1.593121,3.566446,-10.228926,1.891618e-12,0,0,1.891618e-12,-3.330669e-16,-1.110223e-16,-9.731023e-18,0,0,0,0,-1.105967e-16,-3.334925e-16,1.114479e-16,-42.495434,1.485973e-16,1.96147e-16,0,0,0,0,0,0
1.640411,3.566446,-10.296872,1.891618e-12,0,0,1.891618e-12,2.220446e-16,2.220446e-16,-3.077374e-17,0,0,0,0,2.528183e-16,1.912709e-16,3.077374e-17,0,4.103165e-17,1.52235e-16,0,0,0,0,0,0
1.687701,3.566446,-10.353909,1.891618e-12,0,0,1.891618e-12,0,2.220446e-16,4.896538e-17,0,0,0,0,2.32363e-16,-1.031838e-17,1.213407e-16,-56.899723,1.617876e-16,1.584601e-16,0,0,0,0,0,0
1.734992,3.566446,-10.40268,1.891618e-12,0,0,1.891618e-12,4.440892e-16,2.220446e-16,-1.960793e-17,0,0,0,0,4.458074e-16,2.203264e-16,1.127405e-16,39.992065,1.503207e-16,2.573928e-16,0,0,0,0,0,0
1.782282,3.566446,-10.443151,1.891618e-12,0,0,1.891618e-12,2.220446e-16,-1.110223e-16,-6.445313e-18,0,0,0,0,2.221693e-16,-1.11147e-16,1.666581e-16,43.8918,2.222108e-16,1.959663e-16,0,0,0,0,0,0
1.829573,3.566446,-10.477295,1.891618e-12,0,0,1.891618e-12,0,-1.110223e-16,-1.112104e-17,0,0,0,0,1.103029e-18,-1.121253e-16,5.661418e-17,39.335701,7.548557e-17,7.51206e-17,0,0,0,0,0,0
1.876863,3.566446,-10.509017,1.891618e-12,0,0,1.891618e-12,2.220446e-16,2.220446e-16,9.860745e-19,0,0,0,0,2.230307e-16,2.210585e-16,9.860745e-19,90,1.314766e-18,1.480341e-16,0,0,0,0,0,0
1.924154,3.566446,-10.541167,1.891618e-12,0,0,1.891618e-12,-4.440892e-16,0,-1.791338e-17,0,0,0,0,7.214065e-19,-4.448106e-16,2.22766e-16,-42.693836,2.970213e-16,2.967812e-16,0,0,0,0,0,0
1.971444,3.566446,-10.573563,1.891618e-12,0,0,1.891618e-12,-2.220446e-16,2.220446e-16,-1.243851e-17,0,0,0,0,2.223927e-16,-2.223927e-16,2.223927e-16,-43.396877,2.965236e-16,2.56797e-16,0,0,0,0,0,0
2.018735,3.566446,-10.602615,1.891618e-12,0,0,1.891618e-12,-1.110223e-16,-1.110223e-16,-5.0289e-18,0,0,0,0,-1.059934e-16,-1.160512e-16,5.0289e-18,0,6.7052e-18,7.424231e-17,0,0,0,0,0,0
2.066025,3.566446,-10.625423,1.891618e-12,0,0,1.891618e-12,2.220446e-16,2.220446e-16,1.102931e-17,0,0,0,0,2.330739e-16,2.110153e-16,1.102931e-17,90,1.470575e-17,1.485766e-16,0,0,0,0,0,0
2.113316,3.566446,-10.642323,1.891618e-12,0,0,1.891618e-12,-1.110223e-16,2.220446e-16,-4.015058e-18,0,0,0,0,2.22093e-16,-1.110707e-16,1.665819e-16,-44.309444,2.221091e-16,1.958798e-16,0,0,0,0,0,0
2.160606,3.566446,-10.65723,1.891618e-12,0,0,1.891618e-12,0,-2.220446e-16,2.382797e-17,0,0,0,0,2.528231e-18,-2.245728e-16,1.135505e-16,51.056622,1.514007e-16,1.50565e-16,0,0,0,0,0,0
2.207896,3.566446,-10.673373,1.891618e-12,0,0,1.891618e-12,-1.110223e-16,-1.110223e-16,2.682292e-17,0,0,0,0,-8.419938e-17,-1.378452e-16,2.682292e-17,90,3.576389e-17,8.023398e-17,0,0,0,0,0,0
2.255187,3.566446,-10.690789,1.891618e-12,0,0,1.891618e-12,-1.110223e-16,0,-2.17491e-17,0,0,0,0,4.108571e-18,-1.151309e-16,5.961972e-17,-34.302452,7.949296e-17,7.815944e-17,0,0,0,0,0,0
2.302477,3.566446,-10.706772,1.891618e-12,0,0,1.891618e-12,-1.110223e-16,2.220446e-16,6.852965e-18,0,0,0,0,2.221856e-16,-1.111632e-16,1.666744e-16,-46.178215,2.222325e-16,1.959847e-16,0,0,0,0,0,0
2.349768,3.566446,-10.717993,1.891618e-12,0,0,1.891618e-12,0,-2.220446e-16,-1.297682e-17,0,0,0,0,7.558234e-19,-2.228004e-16,1.117781e-16,41.666622,1.490375e-16,1.487862e-16,0,0,0,0,0,0
2.397058,3.566446,-10.721951,1.891618e-12,0,0,1.891618e-12,2.220446e-16,-4.440892e-16,-3.995175e-17,0,0,0,0,2.244322e-16,-4.464768e-16,3.354545e-16,41.579994,4.472726e-16,3.943575e-16,0,0,0,0,0,0
2.444349,3.566446,-10.718876,1.891618e-12,0,0,1.891618e-12,-4.440892e-16,-2.220446e-16,-1.566397e-17,0,0,0,0,-2.209451e-16,-4.451888e-16,1.121219e-16,-40.984615,1.494958e-16,2.570322e-16,0,0,0,0,0,0
2.491639,3.566446,-10.712154,1.891618e-12,0,0,1.891618e-12,-1.110223e-16,2.220446e-16,7.572295e-19,0,0,0,0,2.220463e-16,-1.11024e-16,1.665352e-16,-45.13026,2.220469e-16,1.958269e-16,0,0,0,0,0,0
2.53893,3.566446,-10.705099,1.891618e-12,0,0,1.891618e-12,2.220446e-16,2.220446e-16,3.252426e-17,0,0,0,0,2.545689e-16,1.895203e-16,3.252426e-17,90,4.336568e-17,1.527195e-16,0,0,0,0,0,0
2.58622,3.566446,-10.700171,1.891618e-12,0,0,1.891618e-12,0,-1.110223e-16,-2.591613e-18,0,0,0,0,6.046354e-20,-1.110828e-16,5.557161e-17,43.663506,7.409548e-17,7.407534e-17,0,0,0,0,0,0
2.633511,3.566446,-10.696972,1.891618e-12,0,0,1.891618e-12,-2.220446e-16,-1.110223e-16,7.977283e-18,0,0,0,0,-1.10452e-16,-2.226149e-16,5.608142e-17,-49.088879,7.477521e-17,1.28528e-16,0,0,0,0,0,0
2.680801,3.566446,-10.691207,1.891618e-12,0,0,1.891618e-12,2.220446e-16,-1.110223e-16,7.292999e-19,0,0,0,0,2.220462e-16,-1.110239e-16,1.665351e-16,45.125458,2.220467e-16,1.958268e-16,0,0,0,0,0,0
2.728091,3.566446,-10.680652,1.891618e-12,0,0,1.891618e-12,2.220446e-16,-1.110223e-16,3.357036e-17,0,0,0,0,2.253945e-16,-1.143722e-16,1.698834e-16,50.698566,2.265112e-16,1.996247e-16,0,0,0,0,0,0
2.775382,3.566446,-10.666817,1.891618e-12,0,0,1.891618e-12,0,0,8.21699e-18,0,0,0,0,8.21699e-18,-8.21699e-18,8.21699e-18,90,1.095599e-17,9.488162e-18,0,0,0,0,0,0
2.822672,3.566446,-10.651314,1.891618e-12,0,0,1.891618e-12,2.220446e-16,2.220446e-16,-1.947893e-17,0,0,0,0,2.415235e-16,2.025657e-16,1.947893e-17,0,2.597191e-17,1.497288e-16,0,0,0,0,0,0
2.869963,3.566446,-10.635122,1.891618e-12,0,0,1.891618e-12,-1.110223e-16,2.220446e-16,-3.010431e-17,0,0,0,0,2.247437e-16,-1.137214e-16,1.692326e-16,-39.87664,2.256434e-16,1.988863e-16,0,0,0,0,0,0
2.917253,3.566446,-10.617979,1.891618e-12,0,0,1.891618e-12,-1.110223e-16,2.220446e-16,1.815785e-17,0,0,0,0,2.230316e-16,-1.120093e-16,1.675204e-16,-48.111313,2.233606e-16,1.969442e-16,0,0,0,0,0,0
2.964544,3.566446,-10.596937,1.891618e-12,0,0,1.891618e-12,0,-1.110223e-16,-2.729558e-17,0,0,0,0,6.347856e-18,-1.173702e-16,6.185901e-17,31.908016,8.247868e-17,8.044625e-17,0,0,0,0,0,0
3.011834,3.566446,-10.571265,1.891618e-12,0,0,1.891618e-12,2.220446e-16,-1.110223e-16,1.504271e-17,0,0,0,0,2.227226e-16,-1.117003e-16,1.672115e-16,47.580715,2.229486e-16,1.965938e-16,0,0,0,0,0,0
3.059125,3.566446,-10.541926,1.891618e-12,0,0,1.891618e-12,-2.220446e-16,2.220446e-16,3.166739e-17,0,0,0,0,2.242914e-16,-2.242914e-16,2.242914e-16,-49.058315,2.990552e-16,2.589894e-16,0,0,0,0,0,0
3.106415,3.566446,-10.508761,1.891618e-12,0,0,1.891618e-12,0,-2.220446e-16,-1.941388e-17,0,0,0,0,1.684621e-18,-2.237292e-16,1.127069e-16,40.040638,1.502759e-16,1.497175e-16,0,0,0,0,0,0
3.153705,3.566446,-10.471452,1.891618e-12,0,0,1.891618e-12,-2.220446e-16,2.220446e-16,5.858741e-17,0,0,0,0,2.296438e-16,-2.296438e-16,2.296438e-16,-52.390434,3.061918e-16,2.651699e-16,0,0,0,0,0,0
3.200996,3.566446,-10.429631,1.891618e-12,0,0,1.891618e-12,-2.220446e-16,2.220446e-16,2.094503e-17,0,0,0,0,2.230303e-16,-2.230303e-16,2.230303e-16,-47.694324,2.973737e-16,2.575332e-16,0,0,0,0,0,0
3.248286,3.566446,-10.379673,1.891618e-12,0,0,1.891618e-12,2.220446e-16,0,-2.219032e-17,0,0,0,0,2.242405e-16,-2.195903e-18,1.132182e-16,39.348541,1.509576e-16,1.50231e-16,0,0,0,0,0,0
3.295577,3.566446,-10.321418,1.891618e-12,0,0,1.891618e-12,2.220446e-16,2.220446e-16,-5.970713e-17,0,0,0,0,2.817517e-16,1.623375e-16,5.970713e-17,0,7.96095e-17,1.632975e-16,0,0,0,0,0,0
3.342867,3.566446,-10.253607,1.891618e-12,0,0,1.891618e-12,0,-3.330669e-16,7.739633e-18,0,0,0,0,1.797525e-19,-3.332467e-16,1.667132e-16,46.330452,2.222843e-16,2.222244e-16,0,0,0,0,0,0
1.49854,3.519156,-10.041952,1.891618e-12,0,0,1.891618e-12,-3.330669e-16,0,-5.900944e-17,0,0,0,0,1.014565e-17,-3.432126e-16,1.766791e-16,-35.24437,2.355721e-16,2.322641e-16,0,0,0,0,0,0
1.54583,3.519156,-10.146113,1.891618e-12,0,0,1.891618e-12,0,-1.110223e-16,-3.787711e-17,0,0,0,0,1.169125e-17,-1.227136e-16,6.72024e-17,27.846491,8.96032e-17,8.597151e-17,0,0,0,0,0,0
1.593121,3.519156,-10.228598,1.891618e-12,0,0,1.891618e-12,2.220446e-16,2.220446e-16,-2.448888e-17,0,0,0,0,2.465335e-16,1.975557e-16,2.448888e-17,0,3.265184e-17,1.507064e-16,0,0,0,0,0,0
1.640411,3.519156,-10.297023,1.891618e-12,0,0,1.891618e-12,0,2.220446e-16,5.718662e-17,0,0,0,0,2.359073e-16,-1.386269e-17,1.24885e-16,-58.626301,1.665133e-16,1.620901e-16,0,0,0,0,0,0
1.687701,3.519156,-10.355334,1.891618e-12,0,0,1.891618e-12,0,-2.220446e-16,-3.17085e-17,0,0,0,0,4.439296e-18,-2.264839e-16,1.154616e-16,37.030201,1.539488e-16,1.524906e-16,0,0,0,0,0,0
1.734992,3.519156,-10.406158,1.891618e-12,0,0,1.891618e-12,2.220446e-16,-1.110223e-16,7.227145e-18,0,0,0,0,2.222014e-16,-1.11179e-16,1.666902e-16,46.24247,2.222536e-16,1.960027e-16,0,0,0,0,0,0
1.782282,3.519156,-10.448583,1.891618e-12,0,0,1.891618e-12,-4.440892e-16,2.220446e-16,-1.977491e-17,0,0,0,0,2.226311e-16,-4.446757e-16,3.336534e-16,-43.301105,4.448712e-16,3.92315e-16,0,0,0,0,0,0
1.829573,3.519156,-10.483755,1.891618e-12,0,0,1.891618e-12,0,2.220446e-16,2.48581e-17,0,0,0,0,2.247935e-16,-2.748857e-18,1.137712e-16,-51.310242,1.516949e-16,1.50787e-16,0,0,0,0,0,0
1.876863,3.519156,-10.514989,1.891618e-12,0,0,1.891618e-12,-2.220446e-16,0,1.207716e-17,0,0,0,0,6.549534e-19,-2.226995e-16,1.116773e-16,-48.104153,1.48903e-16,1.486852e-16,0,0,0,0,0,0
1.924154,3.519156,-10.545443,1.891618e-12,0,0,1.891618e-12,2.220446e-16,-2.220446e-16,8.529539e-18,0,0,0,0,2.222084e-16,-2.222084e-16,2.222084e-16,46.09993,2.962778e-16,2.565841e-16,0,0,0,0,0,0
1.971444,3.519156,-10.57597,1.891618e-12,0,0,1.891618e-12,2.220446e-16,2.220446e-16,2.832947e-17,0,0,0,0,2.503741e-16,1.937151e-16,2.832947e-17,90,3.777262e-17,1.516011e-16,0,0,0,0,0,0
2.018735,3.519156,-10.603802,1.891618e-12,0,0,1.891618e-12,-1.110223e-16,0,1.78991e-17,0,0,0,0,2.814362e-18,-1.138367e-16,5.832551e-17,-53.935738,7.776735e-17,7.684641e-17,0,0,0,0,0,0
2.066025,3.519156,-10.626228,1.891618e-12,0,0,1.891618e-12,0,-2.220446e-16,-3.087346e-17,0,0,0,0,4.212771e-18,-2.262574e-16,1.152351e-16,37.229816,1.536468e-16,1.522619e-16,0,0,0,0,0,0
2.113316,3.519156,-10.643526,1.891618e-12,0,0,1.891618e-12,2.220446e-16,0,2.001034e-17,0,0,0,0,2.238335e-16,-1.788891e-18,1.128112e-16,50.108566,1.504149e-16,1.498222e-16,0,0,0,0,0,0
2.160606,3.519156,-10.659071,1.891618e-12,0,0,1.891618e-12,2.220446e-16,0,-1.86752e-17,0,0,0,0,2.236043e-16,-1.559732e-18,1.12582e-16,40.2258,1.501094e-16,1.495922e-16,0,0,0,0,0,0
2.207896,3.519156,-10.675867,1.891618e-12,0,0,1.891618e-12,2.220446e-16,-1.110223e-16,-2.664487e-17,0,0,0,0,2.241627e-16,-1.131404e-16,1.686515e-16,40.454941,2.248687e-16,1.982272e-16,0,0,0,0,0,0
2.255187,3.519156,-10.693962,1.891618e-12,0,0,1.891618e-12,-1.110223e-16,-1.110223e-16,2.423708e-17,0,0,0,0,-8.678522e-17,-1.352594e-16,2.423708e-17,90,3.231611e-17,7.912932e-17,0,0,0,0,0,0
2.302477,3.519156,-10.710582,1.891618e-12,0,0,1.891618e-12,-1.110223e-16,2.220446e-16,3.350366e-17,0,0,0,0,2.253814e-16,-1.143591e-16,1.698702e-16,-50.687538,2.264936e-16,1.996098e-16,0,0,0,0,0,0
2.349768,3.519156,-10.722312,1.891618e-12,0,0,1.891618e-12,-1.110223e-16,2.220446e-16,2.90513e-17,0,0,0,0,2.245596e-16,-1.135373e-16,1.690484e-16,-49.947758,2.253979e-16,1.986774e-16,0,0,0,0,0,0
2.397058,3.519156,-10.726756,1.891618e-12,0,0,1.891618e-12,0,2.220446e-16,-7.431916e-19,0,0,0,0,2.220471e-16,-2.487462e-21,1.110248e-16,-44.808231,1.48033e-16,1.480322e-16,0,0,0,0,0,0
2.444349,3.519156,-10.723973,1.891618e-12,0,0,1.891618e-12,0,-2.220446e-16,1.475766e-17,0,0,0,0,9.765372e-19,-2.230212e-16,1.119988e-16,48.785831,1.493318e-16,1.490073e-16,0,0,0,0,0,0
2.491639,3.519156,-10.717243,1.891618e-12,0,0,1.891618e-12,2.220446e-16,2.220446e-16,1.582173e-17,0,0,0,0,2.378663e-16,2.062229e-16,1.582173e-17,90,2.109565e-17,1.491529e-16,0,0,0,0,0,0
2.53893,3.519156,-10.710092,1.891618e-12,0,0,1.891618e-12,4.440892e-16,2.220446e-16,-1.781377e-17,0,0,0,0,4.455093e-16,2.206246e-16,1.124424e-16,40.442234,1.499231e-16,2.572188e-16,0,0,0,0,0,0
2.58622,3.519156,-10.704877,1.891618e-12,0,0,1.891618e-12,-1.110223e-16,-1.110223e-16,2.639923e-17,0,0,0,0,-8.462306e-17,-1.374215e-16,2.639923e-17,90,3.519898e-17,8.004641e-17,0,0,0,0,0,0
2.633511,3.519156,-10.700928,1.891618e-12,0,0,1.891618e-12,-1.110223e-16,0,9.962637e-18,0,0,0,0,8.869165e-19,-1.119092e-16,5.639807e-17,-50.087303,7.519742e-17,7.490353e-17,0,0,0,0,0,0
2.680801,3.519156,-10.693708,1.891618e-12,0,0,1.891618e-12,0,0,-1.319116e-18,0,0,0,0,1.319116e-18,-1.319116e-18,1.319116e-18,0,1.758821e-18,1.523184e-18,0,0,0,0,0,0
2.728091,3.519156,-10.681481,1.891618e-12,0,0,1.891618e-12,0,0,-1.558474e-19,0,0,0,0,1.558474e-19,-1.558474e-19,1.558474e-19,0,2.077966e-19,1.799571e-19,0,0,0,0,0,0
2.775382,3.519156,-10.666442,1.891618e-12,0,0,1.891618e-12,0,2.220446e-16,-1.680344e-17,0,0,0,0,2.23309e-16,-1.264417e-18,1.122867e-16,-40.696747,1.497156e-16,1.492959e-16,0,0,0,0,0,0
2.822672,3.519156,-10.650785,1.891618e-12,0,0,1.891618e-12,-1.110223e-16,2.220446e-16,3.553757e-17,0,0,0,0,2.257942e-16,-1.147719e-16,1.70283e-16,-51.023003,2.27044e-16,2.000782e-16,0,0,0,0,0,0
2.869963,3.519156,-10.635221,1.891618e-12,0,0,1.891618e-12,2.220446e-16,0,-2.058781e-17,0,0,0,0,2.239374e-16,-1.892753e-18,1.129151e-16,39.747246,1.505534e-16,1.499265e-16,0,0,0,0,0,0
2.917253,3.519156,-10.618631,1.891618e-12,0,0,1.891618e-12,2.220446e-16,2.220446e-16,-2.945413e-17,0,0,0,0,2.514987e-16,1.925905e-16,2.945413e-17,0,3.927217e-17,1.518866e-16,0,0,0,0,0,0
2.964544,3.519156,-10.597677,1.891618e-12,0,0,1.891618e-12,0,2.220446e-16,2.813718e-17,0,0,0,0,2.255546e-16,-3.51002e-18,1.145323e-16,-52.110725,1.527098e-16,1.515533e-16,0,0,0,0,0,0
3.011834,3.519156,-10.571896,1.891618e-12,0,0,1.891618e-12,2.220446e-16,2.220446e-16,8.977429e-18,0,0,0,0,2.31022e-16,2.130672e-16,8.977429e-18,90,1.196991e-17,1.483923e-16,0,0,0,0,0,0
3.059125,3.519156,-10.54272,1.891618e-12,0,0,1.891618e-12,-2.220446e-16,-1.110223e-16,2.857799e-18,0,0,0,0,-1.109488e-16,-2.221181e-16,5.558466e-17,-46.473537,7.411289e-17,1.2824e-16,0,0,0,0,0,0
3.106415,3.519156,-10.510419,1.891618e-12,0,0,1.891618e-12,0,-1.110223e-16,4.061476e-19,0,0,0,0,1.48577e-21,-1.110238e-16,5.551264e-17,45.209599,7.401685e-17,7.401635e-17,0,0,0,0,0,0
3.153705,3.519156,-10.474438,1.891618e-12,0,0,1.891618e-12,-2.220446e-16,2.220446e-16,-3.042461e-18,0,0,0,0,2.220654e-16,-2.220654e-16,2.220654e-16,-44.607491,2.960873e-16,2.564191e-16,0,0,0,0,0,0
3.200996,3.519156,-10.433911,1.891618e-12,0,0,1.891618e-12,-2.220446e-16,2.220446e-16,2.367747e-17,0,0,0,0,2.233035e-16,-2.233035e-16,2.233035e-16,-48.043335,2.977379e-16,2.578486e-16,0,0,0,0,0,0
3.248286,3.519156,-10.384326,1.891618e-12,0,0,1.891618e-12,0,0,-1.606572e-17,0,0,0,0,1.606572e-17,-1.606572e-17,1.606572e-17,0,2.142095e-17,1.855109e-17,0,0,0,0,0,0
3.295577,3.519156,-10.325652,1.891618e-12,0,0,1.891618e-12,0,2.220446e-16,6.331785e-18,0,0,0,0,2.22225e-16,-1.804095e-19,1.112027e-16,-46.632069,1.482703e-16,1.482102e-16,0,0,0,0,0,0
3.342867,3.519156,-10.257172,1.891618e-12,0,0,1.891618e-12,0,-1.110223e-16,1.617157e-17,0,0,0,0,2.307596e-18,-1.133299e-16,5.781875e-17,53.120979,7.709166e-17,7.633409e-17,0,0,0,0,0,0
1.49854,3.471865,-10.041198,1.891618e-12,0,0,1.891618e-12,0,-1.110223e-16,9.941499e-18,0,0,0,0,8.831864e-19,-1.119055e-16,5.639434e-17,50.076736,7.519245e-17,7.489979e-17,0,0,0,0,0,0
1.54583,3.471865,-10.144591,1.891618e-12,0,0,1.891618e-12,0,0,-1.283601e-17,0,0,0,0,1.283601e-17,-1.283601e-17,1.283601e-17,0,1.711468e-17,1.482175e-17,0,0,0,0,0,0
1.593121,3.471865,-10.227578,1.891618e-12,0,0,1.891618e-12,0,-1.110223e-16,-2.098035e-18,0,0,0,0,3.96333e-20,-1.110619e-16,5.555078e-17,43.917774,7.406771e-17,7.40545e-17,0,0,0,0,0,0
1.640411,3.471865,-10.296797,1.891618e-12,0,0,1.891618e-12,0,2.220446e-16,5.226303e-17,0,0,0,0,2.337308e-16,-1.16862e-17,1.227085e-16,-57.604206,1.636113e-16,1.598584e-16,0,0,0,0,0,0
1.687701,3.471865,-10.356643,1.891618e-12,0,0,1.891618e-12,-2.220446e-16,0,1.083156e-17,0,0,0,0,5.271232e-19,-2.225717e-16,1.115494e-16,-47.786129,1.487326e-16,1.485572e-16,0,0,0,0,0,0
1.734992,3.471865,-10.409603,1.891618e-12,0,0,1.891618e-12,-2.220446e-16,-1.110223e-16,3.682561e-17,0,0,0,0,-9.991804e-17,-2.331489e-16,6.661542e-17,-61.779972,8.882055e-17,1.350658e-16,0,0,0,0,0,0
1.782282,3.471865,-10.4541,1.891618e-12,0,0,1.891618e-12,-2.220446e-16,0,2.839975e-17,0,0,0,0,3.574806e-18,-2.256194e-16,1.145971e-16,-52.174351,1.527961e-16,1.516186e-16,0,0,0,0,0,0
1.829573,3.471865,-10.490753,1.891618e-12,0,0,1.891618e-12,0,2.220446e-16,5.353751e-18,0,0,0,0,2.221736e-16,-1.290101e-19,1.111513e-16,-46.380398,1.482018e-16,1.481588e-16,0,0,0,0,0,0
1.876863,3.471865,-10.522184,1.891618e-12,0,0,1.891618e-12,0,0,-7.791152e-18,0,0,0,0,7.791152e-18,-7.791152e-18,7.791152e-18,0,1.03882e-17,8.996448e-18,0,0,0,0,0,0
1.924154,3.471865,-10.551723,1.891618e-12,0,0,1.891618e-12,2.220446e-16,-2.220446e-16,-3.952125e-17,0,0,0,0,2.255343e-16,-2.255343e-16,2.255343e-16,39.953865,3.007124e-16,2.604246e-16,0,0,0,0,0,0
1.971444,3.471865,-10.58101,1.891618e-12,0,0,1.891618e-12,0,0,1.945355e-17,0,0,0,0,1.945355e-17,-1.945355e-17,1.945355e-17,90,2.593806e-17,2.246302e-17,0,0,0,0,0,0
2.018735,3.471865,-10.60788,1.891618e-12,0,0,1.891618e-12,2.220446e-16,2.220446e-16,4.125684e-17,0,0,0,0,2.633014e-16,1.807878e-16,4.125684e-17,90,5.500912e-17,1.555066e-16,0,0,0,0,0,0
2.066025,3.471865,-10.629872,1.891618e-12,0,0,1.891618e-12,0,2.220446e-16,2.095193e-17,0,0,0,0,2.240043e-16,-1.959709e-18,1.12982e-16,-50.343533,1.506427e-16,1.499937e-16,0,0,0,0,0,0
2.113316,3.471865,-10.647319,1.891618e-12,0,0,1.891618e-12,0,0,3.030234e-17,0,0,0,0,3.030234e-17,-3.030234e-17,3.030234e-17,90,4.040312e-17,3.499013e-17,0,0,0,0,0,0
2.160606,3.471865,-10.662985,1.891618e-12,0,0,1.891618e-12,2.220446e-16,-2.220446e-16,5.174209e-17,0,0,0,0,2.279935e-16,-2.279935e-16,2.279935e-16,51.558651,3.039914e-16,2.632642e-16,0,0,0,0,0,0
2.207896,3.471865,-10.679681,1.891618e-12,0,0,1.891618e-12,-3.330669e-16,-1.110223e-16,1.640834e-17,0,0,0,0,-1.098163e-16,-3.342729e-16,1.122283e-16,-49.203533,1.496377e-16,1.967394e-16,0,0,0,0,0,0
2.255187,3.471865,-10.697446,1.891618e-12,0,0,1.891618e-12,-1.110223e-16,0,-1.233162e-17,0,0,0,0,1.353221e-18,-1.123755e-16,5.686437e-17,-38.737656,7.581916e-17,7.537214e-17,0,0,0,0,0,0
2.302477,3.471865,-10.713327,1.891618e-12,0,0,1.891618e-12,4.440892e-16,2.220446e-16,5.48785e-17,0,0,0,0,4.56912e-16,2.092218e-16,1.238451e-16,58.15163,1.651268e-16,2.641097e-16,0,0,0,0,0,0
2.349768,3.471865,-10.724201,1.891618e-12,0,0,1.891618e-12,-1.110223e-16,0,-1.297922e-17,0,0,0,0,1.497165e-18,-1.125195e-16,5.700832e-17,-38.41996,7.601109e-17,7.551698e-17,0,0,0,0,0,0
2.397058,3.471865,-10.727968,1.891618e-12,0,0,1.891618e-12,2.220446e-16,2.220446e-16,3.380717e-17,0,0,0,0,2.558518e-16,1.882374e-16,3.380717e-17,90,4.507622e-17,1.530905e-16,0,0,0,0,0,0
2.444349,3.471865,-10.724974,1.891618e-12,0,0,1.891618e-12,2.220446e-16,-2.220446e-16,2.576323e-17,0,0,0,0,2.235342e-16,-2.235342e-16,2.235342e-16,48.309139,2.980456e-16,2.581151e-16,0,0,0,0,0,0
2.491639,3.471865,-10.718523,1.891618e-12,0,0,1.891618e-12,0,0,8.424412e-18,0,0,0,0,8.424412e-18,-8.424412e-18,8.424412e-18,90,1.123255e-17,9.727673e-18,0,0,0,0,0,0
2.53893,3.471865,-10.712137,1.891618e-12,0,0,1.891618e-12,2.220446e-16,2.220446e-16,-1.710089e-17,0,0,0,0,2.391455e-16,2.049437e-16,1.710089e-17,0,2.280118e-17,1.49341e-16,0,0,0,0,0,0
2.58622,3.471865,-10.70765,1.891618e-12,0,0,1.891618e-12,0,-1.110223e-16,9.560531e-18,0,0,0,0,8.172756e-19,-1.118396e-16,5.632843e-17,49.886013,7.510457e-17,7.483363e-17,0,0,0,0,0,0
2.633511,3.471865,-10.70366,1.891618e-12,0,0,1.891618e-12,2.220446e-16,-1.110223e-16,-3.088395e-17,0,0,0,0,2.248842e-16,-1.138618e-16,1.69373e-16,39.746872,2.258307e-16,1.990456e-16,0,0,0,0,0,0
2.680801,3.471865,-10.695537,1.891618e-12,0,0,1.891618e-12,2.220446e-16,0,-7.017987e-17,0,0,0,0,2.42366e-16,-2.032139e-17,1.313437e-16,28.851017,1.751249e-16,1.687595e-16,0,0,0,0,0,0
2.728091,3.471865,-10.682129,1.891618e-12,0,0,1.891618e-12,4.440892e-16,-1.110223e-16,-7.721414e-18,0,0,0,0,4.441966e-16,-1.111297e-16,2.776631e-16,44.203239,3.702175e-16,3.392959e-16,0,0,0,0,0,0
2.775382,3.471865,-10.666278,1.891618e-12,0,0,1.891618e-12,2.220446e-16,0,5.130466e-18,0,0,0,0,2.221631e-16,-1.184791e-19,1.111408e-16,46.32291,1.481877e-16,1.481482e-16,0,0,0,0,0,0
2.822672,3.471865,-10.650593,1.891618e-12,0,0,1.891618e-12,2.220446e-16,0,8.05181e-19,0,0,0,0,2.220475e-16,-2.91972e-21,1.110252e-16,45.207764,1.480336e-16,1.480327e-16,0,0,0,0,0,0
2.869963,3.471865,-10.635708,1.891618e-12,0,0,1.891618e-12,0,0,6.495592e-19,0,0,0,0,6.495592e-19,-6.495592e-19,6.495592e-19,90,8.660789e-19,7.500463e-19,0,0,0,0,0,0
2.917253,3.471865,-10.619656,1.891618e-12,0,0,1.891618e-12,0,0,5.701072e-18,0,0,0,0,5.701072e-18,-5.701072e-18,5.701072e-18,90,7.601429e-18,6.583031e-18,0,0,0,0,0,0
2.964544,3.471865,-10.598924,1.891618e-12,0,0,1.891618e-12,-2.220446e-16,2.220446e-16,-1.661027e-18,0,0,0,0,2.220508e-16,-2.220508e-16,2.220508e-16,-44.785702,2.960678e-16,2.564022e-16,0,0,0,0,0,0
3.011834,3.471865,-10.57339,1.891618e-12,0,0,1.891618e-12,-2.220446e-16,2.220446e-16,2.613712e-17,0,0,0,0,2.235776e-16,-2.235776e-16,2.235776e-16,-48.356728,2.981035e-16,2.581652e-16,0,0,0,0,0,0
3.059125,3.471865,-10.5449,1.891618e-12,0,0,1.891618e-12,-2.220446e-16,-1.110223e-16,3.400405e-17,0,0,0,0,-1.014353e-16,-2.316316e-16,6.509811e-17,-60.745037,8.679748e-17,1.340757e-16,0,0,0,0,0,0
3.106415,3.471865,-10.513766,1.891618e-12,0,0,1.891618e-12,0,2.220446e-16,-2.704033e-19,0,0,0,0,2.220449e-16,-3.292935e-22,1.110226e-16,-44.930225,1.480302e-16,1.480301e-16,0,0,0,0,0,0
3.153705,3.471865,-10.47931,1.891618e-12,0,0,1.891618e-12,-2.220446e-16,2.220446e-16,2.745729e-17,0,0,0,0,2.237358e-16,-2.237358e-16,2.237358e-16,-48.524609,2.983144e-16,2.583479e-16,0,0,0,0,0,0
3.200996,3.471865,-10.439538,1.891618e-12,0,0,1.891618e-12,-2.220446e-16,-4.440892e-16,-1.540091e-17,0,0,0,0,-2.209815e-16,-4.451523e-16,1.120854e-16,41.051193,1.494472e-16,2.57011e-16,0,0,0,0,0,0
3.248286,3.471865,-10.389926,1.891618e-12,0,0,1.891618e-12,-3.330669e-16,2.220446e-16,-1.706385e-17,0,0,0,0,2.225687e-16,-3.33591e-16,2.780798e-16,-43.240971,3.707731e-16,3.232245e-16,0,0,0,0,0,0
3.295577,3.471865,-10.330694,1.891618e-12,0,0,1.891618e-12,2.220446e-16,0,-5.468429e-17,0,0,0,0,2.347814e-16,-1.273683e-17,1.237591e-16,31.88867,1.650122e-16,1.609347e-16,0,0,0,0,0,0
3.342867,3.471865,-10.261452,1.891618e-12,0,0,1.891618e-12,0,-1.110223e-16,7.119053e-17,0,0,0,0,3.476387e-17,-1.457862e-16,9.027502e-17,71.027252,1.203667e-16,1.106149e-16,0,0,0,0,0,0
1.49854,3.424575,-10.041105,1.891618e-12,0,0,1.891618e-12,-1.110223e-16,-1.110223e-16,-8.655976e-17,0,0,0,0,-2.446254e-17,-1.975821e-16,8.655976e-17,0,1.15413e-16,1.243717e-16,0,0,0,0,0,0
1.54583,3.424575,-10.144257,1.891618e-12,0,0,1.891618e-12,-1.110223e-16,-1.110223e-16,1.200699e-17,0,0,0,0,-9.901531e-17,-1.230293e-16,1.200699e-17,90,1.600933e-17,7.530222e-17,0,0,0,0,0,0
1.593121,3.424575,-10.227411,1.891618e-12,0,0,1.891618e-12,0,-1.110223e-16,-2.469896e-17,0,0,0,0,5.246781e-18,-1.162691e-16,6.075793e-17,33.006977,8.101058e-17,7.931951e-17,0,0,0,0,0,0
1.640411,3.424575,-10.297501,1.891618e-12,0,0,1.891618e-12,0,2.220446e-16,7.327541e-18,0,0,0,0,2.222861e-16,-2.415484e-19,1.112639e-16,-46.888039,1.483518e-16,1.482714e-16,0,0,0,0,0,0
1.687701,3.424575,-10.358686,1.891618e-12,0,0,1.891618e-12,-2.220446e-16,2.220446e-16,-1.069371e-17,0,0,0,0,2.22302e-16,-2.22302e-16,2.22302e-16,-43.621376,2.964026e-16,2.566922e-16,0,0,0,0,0,0
1.734992,3.424575,-10.412813,1.891618e-12,0,0,1.891618e-12,0,2.220446e-16,-8.447942e-18,0,0,0,0,2.223656e-16,-3.209478e-19,1.113432e-16,-42.82431,1.484577e-16,1.483508e-16,0,0,0,0,0,0
1.782282,3.424575,-10.458463,1.891618e-12,0,0,1.891618e-12,2.220446e-16,0,-1.636093e-18,0,0,0,0,2.220566e-16,-1.205457e-20,1.110344e-16,44.577858,1.480458e-16,1.480418e-16,0,0,0,0,0,0
1.829573,3.424575,-10.496129,1.891618e-12,0,0,1.891618e-12,0,4.440892e-16,1.906104e-18,0,0,0,0,4.440974e-16,-8.181163e-21,2.220528e-16,-45.245918,2.960704e-16,2.960677e-16,0,0,0,0,0,0
1.876863,3.424575,-10.527955,1.891618e-12,0,0,1.891618e-12,2.220446e-16,0,1.601221e-17,0,0,0,0,2.231933e-16,-1.148738e-18,1.12171e-16,49.103451,1.495614e-16,1.491799e-16,0,0,0,0,0,0
1.924154,3.424575,-10.557257,1.891618e-12,0,0,1.891618e-12,0,0,-9.981794e-18,0,0,0,0,9.981794e-18,-9.981794e-18,9.981794e-18,0,1.330906e-17,1.152598e-17,0,0,0,0,0,0
1.971444,3.424575,-10.586044,1.891618e-12,0,0,1.891618e-12,0,2.220446e-16,-1.835836e-17,0,0,0,0,2.235522e-16,-1.507609e-18,1.125299e-16,-40.30534,1.500399e-16,1.495399e-16,0,0,0,0,0,0
2.018735,3.424575,-10.612485,1.891618e-12,0,0,1.891618e-12,-4.440892e-16,2.220446e-16,7.91655e-18,0,0,0,0,2.221387e-16,-4.441833e-16,3.33161e-16,-45.680794,4.442146e-16,3.917565e-16,0,0,0,0,0,0
2.066025,3.424575,-10.634513,1.891618e-12,0,0,1.891618e-12,0,2.220446e-16,-8.366697e-18,0,0,0,0,2.223594e-16,-3.148129e-19,1.113371e-16,-42.845154,1.484495e-16,1.483447e-16,0,0,0,0,0,0
2.113316,3.424575,-10.652149,1.891618e-12,0,0,1.891618e-12,0,-1.110223e-16,2.922145e-17,0,0,0,0,7.221465e-18,-1.182438e-16,6.273262e-17,58.881313,8.364349e-17,8.134325e-17,0,0,0,0,0,0
2.160606,3.424575,-10.667606,1.891618e-12,0,0,1.891618e-12,2.220446e-16,2.220446e-16,-2.40256e-17,0,0,0,0,2.460702e-16,1.98019e-16,2.40256e-17,0,3.203413e-17,1.506069e-16,0,0,0,0,0,0
2.207896,3.424575,-10.683624,1.891618e-12,0,0,1.891618e-12,-1.110223e-16,0,-1.934662e-17,0,0,0,0,3.274728e-18,-1.14297e-16,5.878588e-17,-35.392826,7.838117e-17,7.731272e-17,0,0,0,0,0,0
2.255187,3.424575,-10.700251,1.891618e-12,0,0,1.891618e-12,0,-1.110223e-16,-2.817442e-18,0,0,0,0,7.145298e-20,-1.110938e-16,5.558261e-17,43.547237,7.411014e-17,7.408633e-17,0,0,0,0,0,0
2.302477,3.424575,-10.714587,1.891618e-12,0,0,1.891618e-12,2.220446e-16,2.220446e-16,-7.043937e-18,0,0,0,0,2.290885e-16,2.150007e-16,7.043937e-18,0,9.391915e-18,1.48253e-16,0,0,0,0,0,0
2.349768,3.424575,-10.723903,1.891618e-12,0,0,1.891618e-12,-2.220446e-16,0,4.149948e-17,0,0,0,0,7.502625e-18,-2.295472e-16,1.185249e-16,-55.247723,1.580332e-16,1.555927e-16,0,0,0,0,0,0
2.397058,3.424575,-10.726474,1.891618e-12,0,0,1.891618e-12,2.220446e-16,0,-8.021681e-18,0,0,0,0,2.22334e-16,-2.894175e-19,1.113117e-16,42.933697,1.484156e-16,1.483193e-16,0,0,0,0,0,0
2.444349,3.424575,-10.7235,1.891618e-12,0,0,1.891618e-12,2.220446e-16,2.220446e-16,-3.130865e-17,0,0,0,0,2.533532e-16,1.90736e-16,3.130865e-17,0,4.174487e-17,1.523804e-16,0,0,0,0,0,0
2.491639,3.424575,-10.71805,1.891618e-12,0,0,1.891618e-12,0,0,3.40613e-17,0,0,0,0,3.40613e-17,-3.40613e-17,3.40613e-17,90,4.541506e-17,3.93306e-17,0,0,0,0,0,0
2.53893,3.424575,-10.713334,1.891618e-12,0,0,1.891618e-12,0,0,-2.752986e-17,0,0,0,0,2.752986e-17,-2.752986e-17,2.752986e-17,0,3.670649e-17,3.178875e-17,0,0,0,0,0,0
2.58622,3.424575,-10.710378,1.891618e-12,0,0,1.891618e-12,2.220446e-16,-1.110223e-16,-2.811115e-17,0,0,0,0,2.244005e-16,-1.133782e-16,1.688894e-16,40.209347,2.251859e-16,1.98497e-16,0,0,0,0,0,0
2.633511,3.424575,-10.706783,1.891618e-12,0,0,1.891618e-12,-2.220446e-16,4.440892e-16,-3.159566e-17,0,0,0,0,4.455845e-16,-2.235399e-16,3.345622e-16,-42.290489,4.460829e-16,3.933455e-16,0,0,0,0,0,0
2.680801,3.424575,-10.698068,1.891618e-12,0,0,1.891618e-12,2.220446e-16,-4.440892e-16,-2.160422e-17,0,0,0,0,2.227445e-16,-4.447891e-16,3.337668e-16,43.144367,4.450225e-16,3.924435e-16,0,0,0,0,0,0
2.728091,3.424575,-10.683847,1.891618e-12,0,0,1.891618e-12,-1.110223e-16,2.220446e-16,2.83239e-17,0,0,0,0,2.244361e-16,-1.134138e-16,1.689249e-16,-49.826233,2.252333e-16,1.985373e-16,0,0,0,0,0,0
2.775382,3.424575,-10.667322,1.891618e-12,0,0,1.891618e-12,2.220446e-16,-2.220446e-16,4.490549e-18,0,0,0,0,2.2209e-16,-2.2209e-16,2.2209e-16,45.579285,2.9612e-16,2.564475e-16,0,0,0,0,0,0
2.822672,3.424575,-10.651598,1.891618e-12,0,0,1.891618e-12,0,2.220446e-16,1.879593e-17,0,0,0,0,2.236244e-16,-1.579822e-18,1.126021e-16,-49.804493,1.501362e-16,1.496123e-16,0,0,0,0,0,0
2.869963,3.424575,-10.63722,1.891618e-12,0,0,1.891618e-12,-1.110223e-16,0,-4.137516e-17,0,0,0,0,1.372318e-17,-1.247455e-16,6.923433e-17,-26.650522,9.231244e-17,8.809506e-17,0,0,0,0,0,0
2.917253,3.424575,-10.621722,1.891618e-12,0,0,1.891618e-12,0,-4.440892e-16,4.12971e-17,0,0,0,0,3.807685e-18,-4.478969e-16,2.258523e-16,50.267906,3.011364e-16,2.998752e-16,0,0,0,0,0,0
2.964544,3.424575,-10.601489,1.891618e-12,0,0,1.891618e-12,2.220446e-16,2.220446e-16,1.652426e-17,0,0,0,0,2.385689e-16,2.055203e-16,1.652426e-17,90,2.203235e-17,1.492544e-16,0,0,0,0,0,0
3.011834,3.424575,-10.576573,1.891618e-12,0,0,1.891618e-12,2.220446e-16,-1.110223e-16,-3.000155e-17,0,0,0,0,2.247255e-16,-1.137032e-16,1.692143e-16,39.893761,2.256191e-16,1.988656e-16,0,0,0,0,0,0
3.059125,3.424575,-10.549078,1.891618e-12,0,0,1.891618e-12,-1.110223e-16,2.220446e-16,-4.781512e-17,0,0,0,0,2.28773e-16,-1.177507e-16,1.732619e-16,-36.990078,2.310158e-16,2.034595e-16,0,0,0,0,0,0
3.106415,3.424575,-10.518987,1.891618e-12,0,0,1.891618e-12,-2.220446e-16,-1.110223e-16,-4.710592e-18,0,0,0,0,-1.108228e-16,-2.222441e-16,5.571066e-17,-42.574795,7.428088e-17,1.283129e-16,0,0,0,0,0,0
3.153705,3.424575,-10.485422,1.891618e-12,0,0,1.891618e-12,0,0,4.771721e-17,0,0,0,0,4.771721e-17,-4.771721e-17,4.771721e-17,90,6.362295e-17,5.509909e-17,0,0,0,0,0,0
3.200996,3.424575,-10.445946,1.891618e-12,0,0,1.891618e-12,6.661338e-16,0,-4.815847e-17,0,0,0,0,6.695974e-16,-3.463631e-18,3.365305e-16,40.886284,4.487074e-16,4.475573e-16,0,0,0,0,0,0
3.248286,3.424575,-10.39609,1.891618e-12,0,0,1.891618e-12,-2.220446e-16,0,-1.439058e-17,0,0,0,0,9.287608e-19,-2.229734e-16,1.119511e-16,-41.307281,1.492681e-16,1.489595e-16,0,0,0,0,0,0
3.295577,3.424575,-10.336156,1.891618e-12,0,0,1.891618e-12,-1.110223e-16,0,7.253211e-18,0,0,0,0,4.71855e-19,-1.114942e-16,5.598301e-17,-48.722111,7.464401e-17,7.448722e-17,0,0,0,0,0,0
3.342867,3.424575,-10.265894,1.891618e-12,0,0,1.891618e-12,-2.220446e-16,2.220446e-16,4.259733e-17,0,0,0,0,2.260937e-16,-2.260937e-16,2.260937e-16,-50.429878,3.014582e-16,2.610705e-16,0,0,0,0,0,0
1.49854,3.377284,-10.043058,1.891618e-12,0,0,1.891618e-12,0,-3.330669e-16,-8.701407e-17,0,0,0,0,2.136237e-17,-3.544293e-16,1.878958e-16,31.206421,2.505278e-16,2.437193e-16,0,0,0,0,0,0
1.54583,3.377284,-10.146443,1.891618e-12,0,0,1.891618e-12,2.220446e-16,0,1.694301e-17,0,0,0,0,2.2333e-16,-1.285388e-18,1.123077e-16,49.338455,1.497436e-16,1.49317e-16,0,0,0,0,0,0
1.593121,3.377284,-10.228995,1.891618e-12,0,0,1.891618e-12,0,-2.220446e-16,2.449459e-17,0,0,0,0,2.669986e-18,-2.247146e-16,1.136923e-16,51.220856,1.515897e-16,1.507076e-16,0,0,0,0,0,0
1.640411,3.377284,-10.299393,1.891618e-12,0,0,1.891618e-12,0,2.220446e-16,4.244537e-17,0,0,0,0,2.298817e-16,-7.837116e-18,1.188594e-16,-55.461277,1.584792e-16,1.559325e-16,0,0,0,0,0,0
1.687701,3.377284,-10.36103,1.891618e-12,0,0,1.891618e-12,-2.220446e-16,0,-3.509259e-18,0,0,0,0,5.544754e-20,-2.221001e-16,1.110777e-16,-44.09478,1.481037e-16,1.480852e-16,0,0,0,0,0,0
1.734992,3.377284,-10.414916,1.891618e-12,0,0,1.891618e-12,-2.220446e-16,-1.110223e-16,1.042581e-18,0,0,0,0,-1.110125e-16,-2.220544e-16,5.552094e-17,-45.537987,7.402792e-17,1.282032e-16,0,0,0,0,0,0
1.782282,3.377284,-10.460466,1.891618e-12,0,0,1.891618e-12,0,2.220446e-16,3.437099e-18,0,0,0,0,2.220978e-16,-5.319119e-20,1.110755e-16,-45.886616,1.481007e-16,1.480829e-16,0,0,0,0,0,0
1.829573,3.377284,-10.498328,1.891618e-12,0,0,1.891618e-12,0,0,-3.81616e-18,0,0,0,0,3.81616e-18,-3.81616e-18,3.81616e-18,0,5.088213e-18,4.406522e-18,0,0,0,0,0,0
1.876863,3.377284,-10.530338,1.891618e-12,0,0,1.891618e-12,0,-1.110223e-16,2.779466e-17,0,0,0,0,6.569691e-18,-1.17592e-16,6.208084e-17,58.298656,8.277446e-17,8.067377e-17,0,0,0,0,0,0
1.924154,3.377284,-10.559741,1.891618e-12,0,0,1.891618e-12,-2.220446e-16,2.220446e-16,-3.965776e-17,0,0,0,0,2.255583e-16,-2.255583e-16,2.255583e-16,-39.936798,3.007444e-16,2.604523e-16,0,0,0,0,0,0
1.971444,3.377284,-10.588459,1.891618e-12,0,0,1.891618e-12,-1.110223e-16,2.220446e-16,1.670654e-19,0,0,0,0,2.220447e-16,-1.110224e-16,1.665335e-16,-45.02874,2.220447e-16,1.95825e-16,0,0,0,0,0,0
2.018735,3.377284,-10.614937,1.891618e-12,0,0,1.891618e-12,2.220446e-16,2.220446e-16,-2.522029e-18,0,0,0,0,2.245666e-16,2.195226e-16,2.522029e-18,0,3.362705e-18,1.480584e-16,0,0,0,0,0,0
2.066025,3.377284,-10.637413,1.891618e-12,0,0,1.891618e-12,-1.110223e-16,-1.110223e-16,-3.67994e-18,0,0,0,0,-1.073424e-16,-1.147022e-16,3.67994e-18,0,4.906587e-18,7.413674e-17,0,0,0,0,0,0
2.113316,3.377284,-10.655314,1.891618e-12,0,0,1.891618e-12,0,-2.220446e-16,-9.490416e-18,0,0,0,0,4.048919e-19,-2.224495e-16,1.114272e-16,42.557056,1.485696e-16,1.484348e-16,0,0,0,0,0,0
2.160606,3.377284,-10.670434,1.891618e-12,0,0,1.891618e-12,2.220446e-16,-1.110223e-16,-1.859354e-17,0,0,0,0,2.230794e-16,-1.120571e-16,1.675682e-16,41.81464,2.234243e-16,1.969984e-16,0,0,0,0,0,0
2.207896,3.377284,-10.685396,1.891618e-12,0,0,1.891618e-12,2.220446e-16,-1.110223e-16,1.604738e-17,0,0,0,0,2.22816e-16,-1.117937e-16,1.673048e-16,47.752052,2.230731e-16,1.966997e-16,0,0,0,0,0,0
2.255187,3.377284,-10.700539,1.891618e-12,0,0,1.891618e-12,-1.110223e-16,-1.110223e-16,-3.740157e-18,0,0,0,0,-1.072821e-16,-1.147625e-16,3.740157e-18,0,4.986876e-18,7.414076e-17,0,0,0,0,0,0
2.302477,3.377284,-10.713251,1.891618e-12,0,0,1.891618e-12,-2.220446e-16,2.220446e-16,2.109744e-17,0,0,0,0,2.230446e-16,-2.230446e-16,2.230446e-16,-47.713818,2.973928e-16,2.575498e-16,0,0,0,0,0,0
2.349768,3.377284,-10.721249,1.891618e-12,0,0,1.891618e-12,0,0,-7.882573e-18,0,0,0,0,7.882573e-18,-7.882573e-18,7.882573e-18,0,1.05101e-17,9.102011e-18,0,0,0,0,0,0
2.397058,3.377284,-10.72324,1.891618e-12,0,0,1.891618e-12,2.220446e-16,2.220446e-16,4.730419e-19,0,0,0,0,2.225176e-16,2.215716e-16,4.730419e-19,90,6.307226e-19,1.480307e-16,0,0,0,0,0,0
2.444349,3.377284,-10.721125,1.891618e-12,0,0,1.891618e-12,0,0,7.374403e-18,0,0,0,0,7.374403e-18,-7.374403e-18,7.374403e-18,90,9.832538e-18,8.515227e-18,0,0,0,0,0,0
2.491639,3.377284,-10.717563,1.891618e-12,0,0,1.891618e-12,-4.440892e-16,0,1.032133e-17,0,0,0,0,2.397544e-19,-4.44329e-16,2.222844e-16,-46.330685,2.963792e-16,2.962993e-16,0,0,0,0,0,0
2.53893,3.377284,-10.715255,1.891618e-12,0,0,1.891618e-12,0,0,-2.05716e-17,0,0,0,0,2.05716e-17,-2.05716e-17,2.05716e-17,0,2.74288e-17,2.375404e-17,0,0,0,0,0,0
2.58622,3.377284,-10.714,1.891618e-12,0,0,1.891618e-12,0,-1.110223e-16,-1.081867e-17,0,0,0,0,1.044409e-18,-1.120667e-16,5.655556e-17,39.485882,7.540741e-17,7.50617e-17,0,0,0,0,0,0
2.633511,3.377284,-10.710988,1.891618e-12,0,0,1.891618e-12,-1.110223e-16,0,1.239108e-17,0,0,0,0,1.366143e-18,-1.123884e-16,5.68773e-17,-51.291576,7.58364e-17,7.538514e-17,0,0,0,0,0,0
2.680801,3.377284,-10.701942,1.891618e-12,0,0,1.891618e-12,0,0,-2.872197e-17,0,0,0,0,2.872197e-17,-2.872197e-17,2.872197e-17,0,3.829596e-17,3.316528e-17,0,0,0,0,0,0
2.728091,3.377284,-10.6871,1.891618e-12,0,0,1.891618e-12,0,-1.110223e-16,8.048684e-17,0,0,0,0,4.226216e-17,-1.532845e-16,9.777331e-17,72.703133,1.303644e-16,1.188096e-16,0,0,0,0,0,0
2.775382,3.377284,-10.670013,1.891618e-12,0,0,1.891618e-12,-3.330669e-16,0,-3.847908e-17,0,0,0,0,4.38767e-18,-3.374546e-16,1.709211e-16,-38.494808,2.278948e-16,2.264464e-16,0,0,0,0,0,0
2.822672,3.377284,-10.654133,1.891618e-12,0,0,1.891618e-12,2.220446e-16,-1.110223e-16,2.517607e-18,0,0,0,0,2.220636e-16,-1.110413e-16,1.665525e-16,45.43306,2.2207e-16,1.958465e-16,0,0,0,0,0,0
2.869963,3.377284,-10.64002,1.891618e-12,0,0,1.891618e-12,0,0,-3.588903e-17,0,0,0,0,3.588903e-17,-3.588903e-17,3.588903e-17,0,4.785204e-17,4.144109e-17,0,0,0,0,0,0
2.917253,3.377284,-10.625065,1.891618e-12,0,0,1.891618e-12,2.220446e-16,2.220446e-16,-9.604117e-18,0,0,0,0,2.316487e-16,2.124405e-16,9.604117e-18,0,1.280549e-17,1.484446e-16,0,0,0,0,0,0
2.964544,3.377284,-10.605404,1.891618e-12,0,0,1.891618e-12,-2.220446e-16,0,3.774941e-17,0,0,0,0,6.242225e-18,-2.282868e-16,1.172645e-16,-54.389439,1.563527e-16,1.543141e-16,0,0,0,0,0,0
3.011834,3.377284,-10.581104,1.891618e-12,0,0,1.891618e-12,2.220446e-16,-1.110223e-16,-5.139841e-18,0,0,0,0,2.221239e-16,-1.111016e-16,1.666128e-16,44.1161,2.221503e-16,1.959149e-16,0,0,0,0,0,0
3.059125,3.377284,-10.554187,1.891618e-12,0,0,1.891618e-12,2.220446e-16,2.220446e-16,-3.628665e-17,0,0,0,0,2.583313e-16,1.85758e-16,3.628665e-17,0,4.83822e-17,1.538455e-16,0,0,0,0,0,0
3.106415,3.377284,-10.524328,1.891618e-12,0,0,1.891618e-12,0,4.440892e-16,-1.274664e-17,0,0,0,0,4.444548e-16,-3.655643e-19,2.224102e-16,-43.35725,2.965469e-16,2.964251e-16,0,0,0,0,0,0
3.153705,3.377284,-10.490412,1.891618e-12,0,0,1.891618e-12,4.440892e-16,-1.110223e-16,-7.911565e-18,0,0,0,0,4.442019e-16,-1.11135e-16,2.776685e-16,44.183628,3.702247e-16,3.393017e-16,0,0,0,0,0,0
3.200996,3.377284,-10.449812,1.891618e-12,0,0,1.891618e-12,-3.330669e-16,2.220446e-16,-6.260419e-18,0,0,0,0,2.221152e-16,-3.331375e-16,2.776264e-16,-44.353943,3.701685e-16,3.227043e-16,0,0,0,0,0,0
3.248286,3.377284,-10.399428,1.891618e-12,0,0,1.891618e-12,0,-1.110223e-16,4.989693e-17,0,0,0,0,1.912926e-17,-1.301516e-16,7.464041e-17,65.975601,9.952055e-17,9.379662e-17,0,0,0,0,0,0
3.295577,3.377284,-10.338667,1.891618e-12,0,0,1.891618e-12,0,0,-1.202644e-17,0,0,0,0,1.202644e-17,-1.202644e-17,1.202644e-17,0,1.603526e-17,1.388694e-17,0,0,0,0,0,0
3.342867,3.377284,-10.267582,1.891618e-12,0,0,1.891618e-12,0,-1.110223e-16,-1.711883e-17,0,0,0,0,2.579659e-18,-1.13602e-16,5.809081e-17,36.4305,7.745441e-17,7.660901e-17,0,0,0,0,0,0
1.451249,3.329994,-9.993792,1.891618e-12,0,0,1.891618e-12,-1.110223e-16,2.220446e-16,6.515006e-17,0,0,0,0,2.343349e-16,-1.233126e-16,1.788237e-16,-55.683041,2.384316e-16,2.097779e-16,0,0,0,0,0,0
1.49854,3.329994,-10.047938,1.891618e-12,0,0,1.891618e-12,2.220446e-16,-1.110223e-16,3.437288e-17,0,0,0,0,2.255549e-16,-1.145326e-16,1.700438e-16,50.831104,2.26725e-16,1.998067e-16,0,0,0,0,0,0
1.54583,3.329994,-10.151802,1.891618e-12,0,0,1.891618e-12,0,2.220446e-16,-5.11948e-17,0,0,0,0,2.332796e-16,-1.123505e-17,1.222573e-16,-32.622272,1.630098e-16,1.593968e-16,0,0,0,0,0,0
1.593121,3.329994,-10.233288,1.891618e-12,0,0,1.891618e-12,0,-1.110223e-16,6.841769e-18,0,0,0,0,4.200361e-19,-1.114423e-16,5.593119e-17,48.513145,7.457492e-17,7.44353e-17,0,0,0,0,0,0
1.640411,3.329994,-10.303012,1.891618e-12,0,0,1.891618e-12,2.220446e-16,0,2.399569e-18,0,0,0,0,2.220705e-16,-2.59284e-20,1.110482e-16,45.619083,1.480643e-16,1.480557e-16,0,0,0,0,0,0
1.687701,3.329994,-10.363603,1.891618e-12,0,0,1.891618e-12,2.220446e-16,2.220446e-16,1.673405e-17,0,0,0,0,2.387786e-16,2.053106e-16,1.673405e-17,90,2.231206e-17,1.492855e-16,0,0,0,0,0,0
1.734992,3.329994,-10.416088,1.891618e-12,0,0,1.891618e-12,-3.330669e-16,2.220446e-16,-1.0026e-17,0,0,0,0,2.222256e-16,-3.332479e-16,2.777368e-16,-43.965618,3.703157e-16,3.22831e-16,0,0,0,0,0,0
1.782282,3.329994,-10.460694,1.891618e-12,0,0,1.891618e-12,-2.220446e-16,2.220446e-16,4.494779e-17,0,0,0,0,2.265483e-16,-2.265483e-16,2.265483e-16,-50.721786,3.020643e-16,2.615954e-16,0,0,0,0,0,0
1.829573,3.329994,-10.498202,1.891618e-12,0,0,1.891618e-12,0,-1.110223e-16,2.81992e-17,0,0,0,0,6.751863e-18,-1.177742e-16,6.226302e-17,58.465096,8.301736e-17,8.086075e-17,0,0,0,0,0,0
1.876863,3.329994,-10.530173,1.891618e-12,0,0,1.891618e-12,-2.220446e-16,2.220446e-16,-1.216068e-17,0,0,0,0,2.223774e-16,-2.223774e-16,2.223774e-16,-43.432613,2.965031e-16,2.567793e-16,0,0,0,0,0,0
1.924154,3.329994,-10.559714,1.891618e-12,0,0,1.891618e-12,-1.110223e-16,2.220446e-16,1.097634e-17,0,0,0,0,2.224059e-16,-1.113836e-16,1.668948e-16,-46.885475,2.225264e-16,1.962347e-16,0,0,0,0,0,0
1.971444,3.329994,-10.588416,1.891618e-12,0,0,1.891618e-12,0,2.220446e-16,-1.949119e-17,0,0,0,0,2.237426e-16,-1.697962e-18,1.127203e-16,-40.021286,1.502937e-16,1.497309e-16,0,0,0,0,0,0
2.018735,3.329994,-10.615076,1.891618e-12,0,0,1.891618e-12,2.220446e-16,2.220446e-16,1.698745e-17,0,0,0,0,2.390321e-16,2.050571e-16,1.698745e-17,90,2.264994e-17,1.493237e-16,0,0,0,0,0,0
2.066025,3.329994,-10.637955,1.891618e-12,0,0,1.891618e-12,0,2.220446e-16,-3.632733e-17,0,0,0,0,2.278368e-16,-5.792195e-18,1.168145e-16,-35.940758,1.557527e-16,1.538583e-16,0,0,0,0,0,0
2.113316,3.329994,-10.656267,1.891618e-12,0,0,1.891618e-12,-1.110223e-16,2.220446e-16,-1.830935e-17,0,0,0,0,2.230481e-16,-1.120258e-16,1.675369e-16,-41.862938,2.233826e-16,1.969629e-16,0,0,0,0,0,0
2.160606,3.329994,-10.671073,1.891618e-12,0,0,1.891618e-12,0,-1.110223e-16,-2.000015e-17,0,0,0,0,3.493034e-18,-1.145153e-16,5.900418e-17,35.093189,7.867225e-17,7.753413e-17,0,0,0,0,0,0
2.207896,3.329994,-10.685,1.891618e-12,0,0,1.891618e-12,4.440892e-16,0,-1.733244e-17,0,0,0,0,4.447647e-16,-6.754435e-19,2.227201e-16,42.768318,2.969601e-16,2.967352e-16,0,0,0,0,0,0
2.255187,3.329994,-10.698727,1.891618e-12,0,0,1.891618e-12,0,2.220446e-16,-3.165924e-17,0,0,0,0,2.264704e-16,-4.425777e-18,1.154481e-16,-37.041958,1.539308e-16,1.524769e-16,0,0,0,0,0,0
2.302477,3.329994,-10.710226,1.891618e-12,0,0,1.891618e-12,-1.110223e-16,-1.110223e-16,8.607064e-18,0,0,0,0,-1.024152e-16,-1.196294e-16,8.607064e-18,90,1.147609e-17,7.467916e-17,0,0,0,0,0,0
2.349768,3.329994,-10.717499,1.891618e-12,0,0,1.891618e-12,-1.110223e-16,-1.110223e-16,-3.400569e-17,0,0,0,0,-7.701661e-17,-1.45028e-16,3.400569e-17,0,4.534092e-17,8.378574e-17,0,0,0,0,0,0
2.397058,3.329994,-10.720019,1.891618e-12,0,0,1.891618e-12,0,4.440892e-16,3.630189e-18,0,0,0,0,4.441189e-16,-2.967285e-20,2.220743e-16,-45.468319,2.96099e-16,2.960892e-16,0,0,0,0,0,0
2.444349,3.329994,-10.719464,1.891618e-12,0,0,1.891618e-12,2.220446e-16,-2.220446e-16,-1.41594e-17,0,0,0,0,2.224956e-16,-2.224956e-16,2.224956e-16,43.175644,2.966608e-16,2.569158e-16,0,0,0,0,0,0
2.491639,3.329994,-10.718247,1.891618e-12,0,0,1.891618e-12,-2.220446e-16,0,2.068342e-17,0,0,0,0,1.910224e-18,-2.239548e-16,1.129325e-16,-50.276604,1.505767e-16,1.49944e-16,0,0,0,0,0,0
2.53893,3.329994,-10.718161,1.891618e-12,0,0,1.891618e-12,-2.220446e-16,0,9.97456e-18,0,0,0,0,4.471709e-19,-2.224918e-16,1.114695e-16,-47.566917,1.48626e-16,1.484771e-16,0,0,0,0,0,0
2.58622,3.329994,-10.718077,1.891618e-12,0,0,1.891618e-12,0,0,-1.594688e-17,0,0,0,0,1.594688e-17,-1.594688e-17,1.594688e-17,0,2.126251e-17,1.841387e-17,0,0,0,0,0,0
2.633511,3.329994,-10.715308,1.891618e-12,0,0,1.891618e-12,2.220446e-16,2.220446e-16,-1.714465e-17,0,0,0,0,2.391892e-16,2.049e-16,1.714465e-17,0,2.285953e-17,1.493477e-16,0,0,0,0,0,0
2.680801,3.329994,-10.706086,1.891618e-12,0,0,1.891618e-12,0,0,5.515461e-18,0,0,0,0,5.515461e-18,-5.515461e-18,5.515461e-18,90,7.353948e-18,6.368706e-18,0,0,0,0,0,0
2.728091,3.329994,-10.690805,1.891618e-12,0,0,1.891618e-12,2.220446e-16,4.440892e-16,-1.198526e-17,0,0,0,0,4.447343e-16,2.213995e-16,1.116674e-16,-41.919285,1.488898e-16,2.567682e-16,0,0,0,0,0,0
2.775382,3.329994,-10.673308,1.891618e-12,0,0,1.891618e-12,0,-2.220446e-16,-4.011847e-17,0,0,0,0,7.026176e-18,-2.290708e-16,1.180485e-16,35.066212,1.57398e-16,1.55109e-16,0,0,0,0,0,0
2.822672,3.329994,-10.657059,1.891618e-12,0,0,1.891618e-12,0,2.220446e-16,4.166967e-17,0,0,0,0,2.296069e-16,-7.562323e-18,1.185846e-16,-55.286236,1.581128e-16,1.556533e-16,0,0,0,0,0,0
2.869963,3.329994,-10.642942,1.891618e-12,0,0,1.891618e-12,0,0,8.202792e-18,0,0,0,0,8.202792e-18,-8.202792e-18,8.202792e-18,90,1.093706e-17,9.471769e-18,0,0,0,0,0,0
2.917253,3.329994,-10.628321,1.891618e-12,0,0,1.891618e-12,2.220446e-16,0,2.364668e-17,0,0,0,0,2.245349e-16,-2.490326e-18,1.135126e-16,51.011887,1.513502e-16,1.505269e-16,0,0,0,0,0,0
2.964544,3.329994,-10.609125,1.891618e-12,0,0,1.891618e-12,0,-1.110223e-16,1.563966e-17,0,0,0,0,2.161084e-18,-1.131834e-16,5.767224e-17,52.867298,7.689631e-17,7.618617e-17,0,0,0,0,0,0
3.011834,3.329994,-10.585062,1.891618e-12,0,0,1.891618e-12,2.220446e-16,-1.110223e-16,-1.515164e-18,0,0,0,0,2.220515e-16,-1.110292e-16,1.665403e-16,44.739361,2.220538e-16,1.958327e-16,0,0,0,0,0,0
3.059125,3.329994,-10.558039,1.891618e-12,0,0,1.891618e-12,0,-1.110223e-16,-9.319111e-18,0,0,0,0,7.768025e-19,-1.117991e-16,5.628795e-17,40.235077,7.505061e-17,7.479302e-17,0,0,0,0,0,0
3.106415,3.329994,-10.52753,1.891618e-12,0,0,1.891618e-12,0,-2.220446e-16,2.732092e-17,0,0,0,0,3.312225e-18,-2.253568e-16,1.143345e-16,51.912464,1.52446e-16,1.51354e-16,0,0,0,0,0,0
3.153705,3.329994,-10.492638,1.891618e-12,0,0,1.891618e-12,0,0,2.016109e-18,0,0,0,0,2.016109e-18,-2.016109e-18,2.016109e-18,90,2.688146e-18,2.328003e-18,0,0,0,0,0,0
3.200996,3.329994,-10.450809,1.891618e-12,0,0,1.891618e-12,0,2.220446e-16,2.891158e-18,0,0,0,0,2.220822e-16,-3.763829e-20,1.110599e-16,-45.745857,1.480799e-16,1.480674e-16,0,0,0,0,0,0
3.248286,3.329994,-10.399555,1.891618e-12,0,0,1.891618e-12,0,2.220446e-16,-6.285403e-18,0,0,0,0,2.222224e-16,-1.777782e-19,1.112001e-16,-43.37986,1.482668e-16,1.482076e-16,0,0,0,0,0,0
3.295577,3.329994,-10.3374,1.891618e-12,0,0,1.891618e-12,0,0,-1.368439e-18,0,0,0,0,1.368439e-18,-1.368439e-18,1.368439e-18,0,1.824585e-18,1.580137e-18,0,0,0,0,0,0
3.342867,3.329994,-10.265005,1.891618e-12,0,0,1.891618e-12,2.220446e-16,0,-4.724928e-17,0,0,0,0,2.316807e-16,-9.636083e-18,1.206584e-16,33.473095,1.608778e-16,1.577639e-16,0,0,0,0,0,0
1.451249,3.282703,-9.999748,1.891618e-12,0,0,1.891618e-12,-2.220446e-16,4.440892e-16,-4.226021e-17,0,0,0,0,4.467595e-16,-2.247149e-16,3.357372e-16,-41.384418,4.476497e-16,3.946782e-16,0,0,0,0,0,0
1.49854,3.282703,-10.055371,1.891618e-12,0,0,1.891618e-12,0,2.220446e-16,7.43207e-17,0,0,0,0,2.446244e-16,-2.257979e-17,1.336021e-16,-61.899597,1.781361e-16,1.711069e-16,0,0,0,0,0,0
1.54583,3.282703,-10.158604,1.891618e-12,0,0,1.891618e-12,0,-1.110223e-16,2.846822e-17,0,0,0,0,6.874162e-18,-1.178965e-16,6.238531e-17,58.575233,8.318042e-17,8.098634e-17,0,0,0,0,0,0
1.593121,3.282703,-10.239307,1.891618e-12,0,0,1.891618e-12,0,0,-4.066394e-17,0,0,0,0,4.066394e-17,-4.066394e-17,4.066394e-17,0,5.421859e-17,4.695468e-17,0,0,0,0,0,0
1.640411,3.282703,-10.307685,1.891618e-12,0,0,1.891618e-12,2.220446e-16,-1.110223e-16,-1.410667e-17,0,0,0,0,2.22641e-16,-1.116187e-16,1.671299e-16,42.579082,2.228398e-16,1.965012e-16,0,0,0,0,0,0
1.687701,3.282703,-10.366234,1.891618e-12,0,0,1.891618e-12,0,-1.110223e-16,-4.255322e-17,0,0,0,0,1.443358e-17,-1.254559e-16,6.994473e-17,26.263641,9.325964e-17,8.884014e-17,0,0,0,0,0,0
1.734992,3.282703,-10.417052,1.891618e-12,0,0,1.891618e-12,0,0,-2.11028e-17,0,0,0,0,2.11028e-17,-2.11028e-17,2.11028e-17,0,2.813707e-17,2.436742e-17,0,0,0,0,0,0
1.782282,3.282703,-10.460704,1.891618e-12,0,0,1.891618e-12,-2.220446e-16,2.220446e-16,2.416274e-17,0,0,0,0,2.233554e-16,-2.233554e-16,2.233554e-16,-48.105225,2.978072e-16,2.579086e-16,0,0,0,0,0,0
1.829573,3.282703,-10.497958,1.891618e-12,0,0,1.891618e-12,-2.220446e-16,2.220446e-16,6.500675e-18,0,0,0,0,2.221397e-16,-2.221397e-16,2.221397e-16,-45.83847,2.961863e-16,2.565049e-16,0,0,0,0,0,0
1.876863,3.282703,-10.529969,1.891618e-12,0,0,1.891618e-12,4.440892e-16,-1.110223e-16,-1.443111e-17,0,0,0,0,4.444641e-16,-1.113972e-16,2.779307e-16,43.511833,3.705742e-16,3.395878e-16,0,0,0,0,0,0
1.924154,3.282703,-10.559609,1.891618e-12,0,0,1.891618e-12,-2.220446e-16,2.220446e-16,4.439795e-17,0,0,0,0,2.264398e-16,-2.264398e-16,2.264398e-16,-50.653606,3.019197e-16,2.614702e-16,0,0,0,0,0,0
1.971444,3.282703,-10.588268,1.891618e-12,0,0,1.891618e-12,-3.330669e-16,0,-2.013563e-17,0,0,0,0,1.212887e-18,-3.342798e-16,1.677463e-16,-41.552906,2.236618e-16,2.232586e-16,0,0,0,0,0,0
2.018735,3.282703,-10.614931,1.891618e-12,0,0,1.891618e-12,2.220446e-16,0,3.453541e-18,0,0,0,0,2.220983e-16,-5.370119e-20,1.11076e-16,45.890854,1.481013e-16,1.480834e-16,0,0,0,0,0,0
2.066025,3.282703,-10.637957,1.891618e-12,0,0,1.891618e-12,0,-1.110223e-16,2.490825e-17,0,0,0,0,5.332163e-18,-1.163545e-16,6.084332e-17,57.083057,8.112442e-17,7.940673e-17,0,0,0,0,0,0
2.113316,3.282703,-10.65655,1.891618e-12,0,0,1.891618e-12,-1.110223e-16,0,-2.448509e-17,0,0,0,0,5.160155e-18,-1.161825e-16,6.067131e-17,-33.099243,8.089507e-17,7.923106e-17,0,0,0,0,0,0
2.160606,3.282703,-10.671245,1.891618e-12,0,0,1.891618e-12,0,2.220446e-16,-3.084808e-18,0,0,0,0,2.220875e-16,-4.284816e-20,1.110652e-16,-44.204208,1.480869e-16,1.480726e-16,0,0,0,0,0,0
2.207896,3.282703,-10.684614,1.891618e-12,0,0,1.891618e-12,0,0,4.054914e-17,0,0,0,0,4.054914e-17,-4.054914e-17,4.054914e-17,90,5.406552e-17,4.682212e-17,0,0,0,0,0,0
2.255187,3.282703,-10.697512,1.891618e-12,0,0,1.891618e-12,-2.220446e-16,2.220446e-16,3.597316e-18,0,0,0,0,2.220737e-16,-2.220737e-16,2.220737e-16,-45.464081,2.960983e-16,2.564287e-16,0,0,0,0,0,0
2.302477,3.282703,-10.708417,1.891618e-12,0,0,1.891618e-12,0,2.220446e-16,-3.426991e-17,0,0,0,0,2.272134e-16,-5.168826e-18,1.161911e-16,-36.422901,1.549215e-16,1.532276e-16,0,0,0,0,0,0
2.349768,3.282703,-10.715665,1.891618e-12,0,0,1.891618e-12,4.440892e-16,-1.110223e-16,6.257676e-18,0,0,0,0,4.441597e-16,-1.110928e-16,2.776263e-16,45.645775,3.701684e-16,3.392557e-16,0,0,0,0,0,0
2.397058,3.282703,-10.719255,1.891618e-12,0,0,1.891618e-12,-1.110223e-16,0,-3.755802e-17,0,0,0,0,1.151193e-17,-1.225342e-16,6.702308e-17,-27.95915,8.93641e-17,8.578466e-17,0,0,0,0,0,0
2.444349,3.282703,-10.72036,1.891618e-12,0,0,1.891618e-12,2.220446e-16,-2.220446e-16,-2.038143e-17,0,0,0,0,2.22978e-16,-2.22978e-16,2.22978e-16,42.377766,2.973041e-16,2.574729e-16,0,0,0,0,0,0
2.491639,3.282703,-10.720937,1.891618e-12,0,0,1.891618e-12,0,-1.110223e-16,5.206727e-18,0,0,0,0,2.436505e-19,-1.11266e-16,5.57548e-17,47.679222,7.433973e-17,7.425865e-17,0,0,0,0,0,0
2.53893,3.282703,-10.72214,1.891618e-12,0,0,1.891618e-12,2.220446e-16,-1.110223e-16,-1.567301e-17,0,0,0,0,2.227805e-16,-1.117582e-16,1.672693e-16,42.311771,2.230258e-16,1.966594e-16,0,0,0,0,0,0
2.58622,3.282703,-10.722414,1.891618e-12,0,0,1.891618e-12,0,0,3.803009e-17,0,0,0,0,3.803009e-17,-3.803009e-17,3.803009e-17,90,5.070679e-17,4.391336e-17,0,0,0,0,0,0
2.633511,3.282703,-10.71921,1.891618e-12,0,0,1.891618e-12,0,-2.220446e-16,-5.201803e-18,0,0,0,0,1.21795e-19,-2.221664e-16,1.111441e-16,43.658722,1.481921e-16,1.481515e-16,0,0,0,0,0,0
2.680801,3.282703,-10.709476,1.891618e-12,0,0,1.891618e-12,-1.110223e-16,0,1.370959e-17,0,0,0,0,1.667872e-18,-1.126902e-16,5.717903e-17,-51.936367,7.62387e-17,7.568887e-17,0,0,0,0,0,0
2.728091,3.282703,-10.693755,1.891618e-12,0,0,1.891618e-12,2.220446e-16,0,1.99854e-17,0,0,0,0,2.238291e-16,-1.784469e-18,1.128068e-16,50.102333,1.50409e-16,1.498177e-16,0,0,0,0,0,0
2.775382,3.282703,-10.675936,1.891618e-12,0,0,1.891618e-12,-2.220446e-16,0,-2.944045e-17,0,0,0,0,3.837142e-18,-2.258817e-16,1.148594e-16,-37.574177,1.531459e-16,1.51883e-16,0,0,0,0,0,0
2.822672,3.282703,-10.659405,1.891618e-12,0,0,1.891618e-12,2.220446e-16,2.220446e-16,2.416966e-18,0,0,0,0,2.244616e-16,2.196276e-16,2.416966e-18,90,3.222622e-18,1.48056e-16,0,0,0,0,0,0
2.869963,3.282703,-10.64524,1.891618e-12,0,0,1.891618e-12,-2.220446e-16,-1.110223e-16,1.100204e-17,0,0,0,0,-1.099425e-16,-2.231244e-16,5.659093e-17,-50.605232,7.545457e-17,1.288254e-16,0,0,0,0,0,0
2.917253,3.282703,-10.630593,1.891618e-12,0,0,1.891618e-12,2.220446e-16,2.220446e-16,1.250991e-17,0,0,0,0,2.345545e-16,2.095347e-16,1.250991e-17,90,1.667988e-17,1.487329e-16,0,0,0,0,0,0
2.964544,3.282703,-10.611536,1.891618e-12,0,0,1.891618e-12,0,2.220446e-16,-1.443921e-17,0,0,0,0,2.229796e-16,-9.350221e-19,1.119573e-16,-41.294941,1.492764e-16,1.489657e-16,0,0,0,0,0,0
3.011834,3.282703,-10.58739,1.891618e-12,0,0,1.891618e-12,2.220446e-16,-1.110223e-16,2.613351e-17,0,0,0,0,2.240826e-16,-1.130604e-16,1.685715e-16,49.459248,2.24762e-16,1.981364e-16,0,0,0,0,0,0
3.059125,3.282703,-10.55979,1.891618e-12,0,0,1.891618e-12,-2.220446e-16,-1.110223e-16,8.236615e-18,0,0,0,0,-1.104146e-16,-2.226524e-16,5.611889e-17,-49.219917,7.482518e-17,1.285498e-16,0,0,0,0,0,0
3.106415,3.282703,-10.528246,1.891618e-12,0,0,1.891618e-12,2.220446e-16,2.220446e-16,5.18521e-17,0,0,0,0,2.738967e-16,1.701925e-16,5.18521e-17,90,6.913613e-17,1.596799e-16,0,0,0,0,0,0
3.153705,3.282703,-10.492213,1.891618e-12,0,0,1.891618e-12,0,2.220446e-16,3.503112e-18,0,0,0,0,2.220998e-16,-5.52535e-20,1.110776e-16,-45.903633,1.481034e-16,1.48085e-16,0,0,0,0,0,0
3.200996,3.282703,-10.449661,1.891618e-12,0,0,1.891618e-12,2.220446e-16,-2.220446e-16,-2.10333e-17,0,0,0,0,2.230386e-16,-2.230386e-16,2.230386e-16,42.294388,2.973848e-16,2.575428e-16,0,0,0,0,0,0
3.248286,3.282703,-10.397579,1.891618e-12,0,0,1.891618e-12,2.220446e-16,0,3.417823e-17,0,0,0,0,2.271864e-16,-5.141818e-18,1.161641e-16,53.555492,1.548855e-16,1.532003e-16,0,0,0,0,0,0
3.295577,3.282703,-10.334306,1.891618e-12,0,0,1.891618e-12,2.220446e-16,0,-3.191364e-17,0,0,0,0,2.265404e-16,-4.4958e-18,1.155181e-16,36.981285,1.540241e-16,1.525476e-16,0,0,0,0,0,0
3.342867,3.282703,-10.260871,1.891618e-12,0,0,1.891618e-12,0,-3.330669e-16,-5.802722e-17,0,0,0,0,9.820026e-18,-3.428869e-16,1.763535e-16,35.394764,2.35138e-16,2.319339e-16,0,0,0,0,0,0
1.451249,3.235413,-10.00451,1.891618e-12,0,0,1.891618e-12,-2.220446e-16,0,-4.661651e-17,0,0,0,0,9.3897e-18,-2.314343e-16,1.20412e-16,-33.611618,1.605493e-16,1.575128e-16,0,0,0,0,0,0
1.49854,3.235413,-10.061213,1.891618e-12,0,0,1.891618e-12,4.440892e-16,-1.110223e-16,1.006308e-16,0,0,0,0,4.617685e-16,-1.287016e-16,2.952351e-16,54.964325,3.936468e-16,3.585307e-16,0,0,0,0,0,0
1.54583,3.235413,-10.164315,1.891618e-12,0,0,1.891618e-12,-2.220446e-16,-1.110223e-16,-3.227147e-17,0,0,0,0,-1.023234e-16,-2.307436e-16,6.421009e-17,-29.914185,8.561346e-17,1.335036e-16,0,0,0,0,0,0
1.593121,3.235413,-10.244736,1.891618e-12,0,0,1.891618e-12,4.440892e-16,-1.110223e-16,-2.292779e-17,0,0,0,0,4.450346e-16,-1.119677e-16,2.785011e-16,42.63887,3.713349e-16,3.402104e-16,0,0,0,0,0,0
1.640411,3.235413,-10.31161,1.891618e-12,0,0,1.891618e-12,-3.330669e-16,2.220446e-16,-2.813214e-17,0,0,0,0,2.234666e-16,-3.344889e-16,2.789778e-16,-42.106228,3.719704e-16,3.242546e-16,0,0,0,0,0,0
1.687701,3.235413,-10.368299,1.891618e-12,0,0,1.891618e-12,-2.220446e-16,2.220446e-16,4.067321e-18,0,0,0,0,2.220818e-16,-2.220818e-16,2.220818e-16,-45.5247,2.961091e-16,2.56438e-16,0,0,0,0,0,0
1.734992,3.235413,-10.418273,1.891618e-12,0,0,1.891618e-12,2.220446e-16,2.220446e-16,-3.034556e-18,0,0,0,0,2.250792e-16,2.1901e-16,3.034556e-18,0,4.046075e-18,1.480712e-16,0,0,0,0,0,0
1.782282,3.235413,-10.461778,1.891618e-12,0,0,1.891618e-12,-2.220446e-16,2.220446e-16,-3.747364e-18,0,0,0,0,2.220762e-16,-2.220762e-16,2.220762e-16,-44.516567,2.961016e-16,2.564315e-16,0,0,0,0,0,0
1.829573,3.235413,-10.49928,1.891618e-12,0,0,1.891618e-12,2.220446e-16,0,2.755139e-17,0,0,0,0,2.254121e-16,-3.367516e-18,1.143898e-16,51.968513,1.525198e-16,1.514097e-16,0,0,0,0,0,0
1.876863,3.235413,-10.531637,1.891618e-12,0,0,1.891618e-12,0,2.220446e-16,-1.11417e-17,0,0,0,0,2.226023e-16,-5.576649e-19,1.1158e-16,-42.134621,1.487733e-16,1.485878e-16,0,0,0,0,0,0
1.924154,3.235413,-10.561494,1.891618e-12,0,0,1.891618e-12,0,2.220446e-16,2.56607e-17,0,0,0,0,2.249715e-16,-2.926911e-18,1.139492e-16,-51.507149,1.519323e-16,1.509661e-16,0,0,0,0,0,0
1.971444,3.235413,-10.590305,1.891618e-12,0,0,1.891618e-12,2.220446e-16,-1.110223e-16,8.935855e-18,0,0,0,0,2.222842e-16,-1.112619e-16,1.66773e-16,46.535717,2.22364e-16,1.960966e-16,0,0,0,0,0,0
2.018735,3.235413,-10.617053,1.891618e-12,0,0,1.891618e-12,2.220446e-16,0,-2.01661e-17,0,0,0,0,2.238612e-16,-1.816624e-18,1.128389e-16,39.852516,1.504519e-16,1.4985e-16,0,0,0,0,0,0
2.066025,3.235413,-10.640145,1.891618e-12,0,0,1.891618e-12,0,0,1.526071e-17,0,0,0,0,1.526071e-17,-1.526071e-17,1.526071e-17,90,2.034762e-17,1.762155e-17,0,0,0,0,0,0
2.113316,3.235413,-10.658764,1.891618e-12,0,0,1.891618e-12,0,-1.110223e-16,4.333303e-17,0,0,0,0,1.491072e-17,-1.25933e-16,7.042187e-17,63.988129,9.389583e-17,8.934131e-17,0,0,0,0,0,0
2.160606,3.235413,-10.673442,1.891618e-12,0,0,1.891618e-12,-1.110223e-16,2.220446e-16,-2.78312e-17,0,0,0,0,2.243542e-16,-1.133319e-16,1.68843e-16,-40.256184,2.25124e-16,1.984444e-16,0,0,0,0,0,0
2.207896,3.235413,-10.686718,1.891618e-12,0,0,1.891618e-12,0,-2.220446e-16,-4.396151e-17,0,0,0,0,8.386934e-18,-2.304315e-16,1.194092e-16,34.198959,1.592123e-16,1.564916e-16,0,0,0,0,0,0
2.255187,3.235413,-10.699638,1.891618e-12,0,0,1.891618e-12,2.220446e-16,0,-7.178504e-18,0,0,0,0,2.222764e-16,-2.318326e-19,1.112541e-16,43.150253,1.483388e-16,1.482616e-16,0,0,0,0,0,0
2.302477,3.235413,-10.710521,1.891618e-12,0,0,1.891618e-12,-2.220446e-16,-1.110223e-16,1.958247e-17,0,0,0,0,-1.076695e-16,-2.253974e-16,5.886392e-17,-54.715565,7.848523e-17,1.301764e-16,0,0,0,0,0,0
2.349768,3.235413,-10.717967,1.891618e-12,0,0,1.891618e-12,2.220446e-16,-1.110223e-16,1.469694e-17,0,0,0,0,2.226919e-16,-1.116696e-16,1.671807e-16,47.521706,2.229076e-16,1.965589e-16,0,0,0,0,0,0
2.397058,3.235413,-10.722176,1.891618e-12,0,0,1.891618e-12,0,-1.110223e-16,-7.076436e-17,0,0,0,0,3.442817e-17,-1.454505e-16,8.993932e-17,19.056219,1.199191e-16,1.102497e-16,0,0,0,0,0,0
2.444349,3.235413,-10.724163,1.891618e-12,0,0,1.891618e-12,-1.110223e-16,0,-9.634809e-18,0,0,0,0,8.299302e-19,-1.118522e-16,5.634108e-17,-40.076767,7.512144e-17,7.484633e-17,0,0,0,0,0,0
2.491639,3.235413,-10.725503,1.891618e-12,0,0,1.891618e-12,0,-2.220446e-16,-3.978954e-17,0,0,0,0,6.914796e-18,-2.289594e-16,1.179371e-16,35.141354,1.572495e-16,1.54996e-16,0,0,0,0,0,0
2.53893,3.235413,-10.726986,1.891618e-12,0,0,1.891618e-12,2.220446e-16,2.220446e-16,-3.955346e-17,0,0,0,0,2.615981e-16,1.824911e-16,3.955346e-17,0,5.273795e-17,1.549154e-16,0,0,0,0,0,0
2.58622,3.235413,-10.726717,1.891618e-12,0,0,1.891618e-12,-1.110223e-16,2.220446e-16,4.842323e-17,0,0,0,0,2.289418e-16,-1.179195e-16,1.734307e-16,-53.106468,2.312409e-16,2.036512e-16,0,0,0,0,0,0
2.633511,3.235413,-10.722384,1.891618e-12,0,0,1.891618e-12,2.220446e-16,-1.110223e-16,-2.24386e-17,0,0,0,0,2.235495e-16,-1.125272e-16,1.680383e-16,41.163113,2.240511e-16,1.975316e-16,0,0,0,0,0,0
2.680801,3.235413,-10.711625,1.891618e-12,0,0,1.891618e-12,0,0,1.706308e-17,0,0,0,0,1.706308e-17,-1.706308e-17,1.706308e-17,90,2.275078e-17,1.970275e-17,0,0,0,0,0,0
2.728091,3.235413,-10.695486,1.891618e-12,0,0,1.891618e-12,-1.110223e-16,0,1.12065e-17,0,0,0,0,1.119878e-18,-1.121422e-16,5.663103e-17,-50.706688,7.550804e-17,7.513753e-17,0,0,0,0,0,0
2.775382,3.235413,-10.677526,1.891618e-12,0,0,1.891618e-12,2.220446e-16,-1.110223e-16,-2.655727e-17,0,0,0,0,2.241489e-16,-1.131266e-16,1.686377e-16,40.469639,2.248503e-16,1.982115e-16,0,0,0,0,0,0
2.822672,3.235413,-10.661078,1.891618e-12,0,0,1.891618e-12,0,2.220446e-16,-2.872601e-17,0,0,0,0,2.257007e-16,-3.656097e-18,1.146784e-16,-37.746689,1.529045e-16,1.517005e-16,0,0,0,0,0,0
2.869963,3.235413,-10.646951,1.891618e-12,0,0,1.891618e-12,0,2.220446e-16,-3.979731e-17,0,0,0,0,2.28962e-16,-6.917417e-18,1.179397e-16,-35.13958,1.57253e-16,1.549986e-16,0,0,0,0,0,0
2.917253,3.235413,-10.631956,1.891618e-12,0,0,1.891618e-12,0,-1.110223e-16,-3.469682e-18,0,0,0,0,1.083292e-19,-1.111306e-16,5.561948e-17,43.211712,7.415931e-17,7.412322e-17,0,0,0,0,0,0
2.964544,3.235413,-10.612564,1.891618e-12,0,0,1.891618e-12,2.220446e-16,-2.220446e-16,-4.079582e-18,0,0,0,0,2.220821e-16,-2.220821e-16,2.220821e-16,44.473717,2.961094e-16,2.564383e-16,0,0,0,0,0,0
3.011834,3.235413,-10.587952,1.891618e-12,0,0,1.891618e-12,-1.110223e-16,2.220446e-16,-2.733649e-17,0,0,0,0,2.242733e-16,-1.13251e-16,1.687622e-16,-40.339012,2.250162e-16,1.983527e-16,0,0,0,0,0,0
3.059125,3.235413,-10.559607,1.891618e-12,0,0,1.891618e-12,-2.220446e-16,2.220446e-16,2.079989e-17,0,0,0,0,2.230167e-16,-2.230167e-16,2.230167e-16,-47.675766,2.973556e-16,2.575175e-16,0,0,0,0,0,0
3.106415,3.235413,-10.527472,1.891618e-12,0,0,1.891618e-12,2.220446e-16,2.220446e-16,-2.858696e-17,0,0,0,0,2.506316e-16,1.934576e-16,2.858696e-17,0,3.811595e-17,1.516655e-16,0,0,0,0,0,0
3.153705,3.235413,-10.491099,1.891618e-12,0,0,1.891618e-12,-2.220446e-16,0,-3.764868e-18,0,0,0,0,6.381671e-20,-2.221084e-16,1.110861e-16,-44.028896,1.481148e-16,1.480936e-16,0,0,0,0,0,0
3.200996,3.235413,-10.448732,1.891618e-12,0,0,1.891618e-12,0,-1.110223e-16,6.84482e-18,0,0,0,0,4.204094e-19,-1.114427e-16,5.593156e-17,48.514698,7.457541e-17,7.443567e-17,0,0,0,0,0,0
3.248286,3.235413,-10.396283,1.891618e-12,0,0,1.891618e-12,0,2.220446e-16,5.85556e-18,0,0,0,0,2.221989e-16,-1.543103e-19,1.111766e-16,-46.509552,1.482355e-16,1.481841e-16,0,0,0,0,0,0
3.295577,3.235413,-10.332643,1.891618e-12,0,0,1.891618e-12,0,2.220446e-16,-2.921031e-17,0,0,0,0,2.25823e-16,-3.778367e-18,1.148007e-16,-37.629688,1.530676e-16,1.518238e-16,0,0,0,0,0,0
3.342867,3.235413,-10.258967,1.891618e-12,0,0,1.891618e-12,6.661338e-16,0,8.178038e-18,0,0,0,0,6.662342e-16,-1.003856e-19,3.331673e-16,45.70327,4.44223e-16,4.441896e-16,0,0,0,0,0,0
1.451249,3.188122,-10.006124,1.891618e-12,0,0,1.891618e-12,-1.110223e-16,0,-3.483504e-18,0,0,0,0,1.091931e-19,-1.111315e-16,5.562035e-17,-43.204605,7.416046e-17,7.412409e-17,0,0,0,0,0,0
1.49854,3.188122,-10.063533,1.891618e-12,0,0,1.891618e-12,2.220446e-16,0,-1.158504e-17,0,0,0,0,2.226474e-16,-6.028063e-19,1.116251e-16,42.021408,1.488335e-16,1.486329e-16,0,0,0,0,0,0
1.54583,3.188122,-10.167023,1.891618e-12,0,0,1.891618e-12,-1.110223e-16,2.220446e-16,-1.791849e-17,0,0,0,0,2.230058e-16,-1.119835e-16,1.674947e-16,-41.929386,2.233262e-16,1.96915e-16,0,0,0,0,0,0
1.593121,3.188122,-10.247477,1.891618e-12,0,0,1.891618e-12,0,-4.440892e-16,4.524599e-19,0,0,0,0,4.609879e-22,-4.440897e-16,2.220451e-16,45.058376,2.960601e-16,2.960599e-16,0,0,0,0,0,0
1.640411,3.188122,-10.313934,1.891618e-12,0,0,1.891618e-12,-1.110223e-16,0,5.275668e-17,0,0,0,0,2.107054e-17,-1.320928e-16,7.658168e-17,-66.771317,1.021089e-16,9.586043e-17,0,0,0,0,0,0
1.687701,3.188122,-10.370439,1.891618e-12,0,0,1.891618e-12,2.220446e-16,0,1.495693e-17,0,0,0,0,2.230476e-16,-1.002969e-18,1.120253e-16,48.836349,1.49367e-16,1.490338e-16,0,0,0,0,0,0
1.734992,3.188122,-10.420846,1.891618e-12,0,0,1.891618e-12,-2.220446e-16,2.220446e-16,-1.865099e-17,0,0,0,0,2.228265e-16,-2.228265e-16,2.228265e-16,-42.599312,2.97102e-16,2.572979e-16,0,0,0,0,0,0
1.782282,3.188122,-10.464981,1.891618e-12,0,0,1.891618e-12,2.220446e-16,-1.110223e-16,4.567062e-17,0,0,0,0,2.281935e-16,-1.171712e-16,1.726824e-16,52.667957,2.302431e-16,2.028016e-16,0,0,0,0,0,0
1.829573,3.188122,-10.503044,1.891618e-12,0,0,1.891618e-12,0,2.220446e-16,6.042018e-17,0,0,0,0,2.374207e-16,-1.537608e-17,1.263984e-16,-59.277885,1.685312e-16,1.636468e-16,0,0,0,0,0,0
1.876863,3.188122,-10.535949,1.891618e-12,0,0,1.891618e-12,2.220446e-16,-1.110223e-16,2.55139e-17,0,0,0,0,2.239877e-16,-1.129654e-16,1.684766e-16,49.35516,2.246354e-16,1.980287e-16,0,0,0,0,0,0
1.924154,3.188122,-10.566271,1.891618e-12,0,0,1.891618e-12,2.220446e-16,0,5.977729e-18,0,0,0,0,2.222054e-16,-1.608118e-19,1.111831e-16,46.540989,1.482441e-16,1.481906e-16,0,0,0,0,0,0
1.971444,3.188122,-10.595442,1.891618e-12,0,0,1.891618e-12,2.220446e-16,-1.110223e-16,-3.109001e-17,0,0,0,0,2.249218e-16,-1.138995e-16,1.694107e-16,39.712612,2.258809e-16,1.990884e-16,0,0,0,0,0,0
2.018735,3.188122,-10.622332,1.891618e-12,0,0,1.891618e-12,2.220446e-16,-1.110223e-16,-1.769678e-17,0,0,0,0,2.229822e-16,-1.119599e-16,1.674711e-16,41.967098,2.232948e-16,1.968882e-16,0,0,0,0,0,0
2.066025,3.188122,-10.645359,1.891618e-12,0,0,1.891618e-12,2.220446e-16,-4.440892e-16,-2.157137e-17,0,0,0,0,2.227424e-16,-4.44787e-16,3.337647e-16,43.147182,4.450196e-16,3.924411e-16,0,0,0,0,0,0
2.113316,3.188122,-10.663854,1.891618e-12,0,0,1.891618e-12,0,4.440892e-16,2.081677e-17,0,0,0,0,4.450629e-16,-9.736558e-19,2.230183e-16,-47.677925,2.973577e-16,2.970336e-16,0,0,0,0,0,0
2.160606,3.188122,-10.67843,1.891618e-12,0,0,1.891618e-12,4.440892e-16,2.220446e-16,3.573568e-18,0,0,0,0,4.441467e-16,2.219871e-16,1.110798e-16,45.921795,1.481064e-16,2.564282e-16,0,0,0,0,0,0
2.207896,3.188122,-10.69176,1.891618e-12,0,0,1.891618e-12,-1.110223e-16,2.220446e-16,5.649678e-18,0,0,0,0,2.221404e-16,-1.111181e-16,1.666293e-16,-45.971512,2.221723e-16,1.959336e-16,0,0,0,0,0,0
2.255187,3.188122,-10.704969,1.891618e-12,0,0,1.891618e-12,-1.110223e-16,0,-4.197067e-19,0,0,0,0,1.586629e-21,-1.110239e-16,5.551274e-17,-44.783405,7.401698e-17,7.401645e-17,0,0,0,0,0,0
2.302477,3.188122,-10.715979,1.891618e-12,0,0,1.891618e-12,-4.440892e-16,-1.110223e-16,-2.442195e-17,0,0,0,0,-1.092411e-16,-4.458704e-16,1.683147e-16,-40.828552,2.244195e-16,2.683502e-16,0,0,0,0,0,0
2.349768,3.188122,-10.723443,1.891618e-12,0,0,1.891618e-12,-1.110223e-16,2.220446e-16,-3.94175e-17,0,0,0,0,2.26646e-16,-1.156237e-16,1.711348e-16,-38.341747,2.281798e-16,2.010449e-16,0,0,0,0,0,0
2.397058,3.188122,-10.72749,1.891618e-12,0,0,1.891618e-12,-1.110223e-16,-1.110223e-16,1.331546e-17,0,0,0,0,-9.770684e-17,-1.243378e-16,1.331546e-17,90,1.775395e-17,7.559499e-17,0,0,0,0,0,0
2.444349,3.188122,-10.729354,1.891618e-12,0,0,1.891618e-12,2.220446e-16,0,7.827316e-18,0,0,0,0,2.223202e-16,-2.755794e-19,1.112979e-16,47.016403,1.483972e-16,1.483054e-16,0,0,0,0,0,0
2.491639,3.188122,-10.730597,1.891618e-12,0,0,1.891618e-12,2.220446e-16,-1.110223e-16,-1.495771e-17,0,0,0,0,2.22715e-16,-1.116927e-16,1.672038e-16,42.433788,2.229385e-16,1.965851e-16,0,0,0,0,0,0
2.53893,3.188122,-10.731604,1.891618e-12,0,0,1.891618e-12,-4.440892e-16,0,-3.573208e-18,0,0,0,0,2.87487e-20,-4.44118e-16,2.220734e-16,-44.539028,2.960978e-16,2.960882e-16,0,0,0,0,0,0
2.58622,3.188122,-10.730333,1.891618e-12,0,0,1.891618e-12,-1.110223e-16,-2.220446e-16,5.092549e-19,0,0,0,0,-1.1102e-16,-2.220469e-16,5.551349e-17,45.262806,7.401798e-17,1.281989e-16,0,0,0,0,0,0
2.633511,3.188122,-10.724473,1.891618e-12,0,0,1.891618e-12,0,4.440892e-16,-1.871113e-17,0,0,0,0,4.448762e-16,-7.869746e-19,2.228316e-16,-42.591606,2.971088e-16,2.968468e-16,0,0,0,0,0,0
2.680801,3.188122,-10.712548,1.891618e-12,0,0,1.891618e-12,0,2.220446e-16,1.768435e-17,0,0,0,0,2.234442e-16,-1.399616e-18,1.124219e-16,-49.525204,1.498959e-16,1.494315e-16,0,0,0,0,0,0
2.728091,3.188122,-10.696139,1.891618e-12,0,0,1.891618e-12,-1.110223e-16,0,3.104223e-17,0,0,0,0,8.090013e-18,-1.191123e-16,6.360116e-17,-59.607117,8.480155e-17,8.223763e-17,0,0,0,0,0,0
2.775382,3.188122,-10.678558,1.891618e-12,0,0,1.891618e-12,2.220446e-16,2.220446e-16,5.105662e-17,0,0,0,0,2.731012e-16,1.70988e-16,5.105662e-17,90,6.80755e-17,1.593377e-16,0,0,0,0,0,0
2.822672,3.188122,-10.662627,1.891618e-12,0,0,1.891618e-12,2.220446e-16,-1.110223e-16,1.198272e-17,0,0,0,0,2.224752e-16,-1.114528e-16,1.66964e-16,47.057777,2.226187e-16,1.963131e-16,0,0,0,0,0,0
2.869963,3.188122,-10.648656,1.891618e-12,0,0,1.891618e-12,2.220446e-16,2.220446e-16,-3.448854e-18,0,0,0,0,2.254935e-16,2.185958e-16,3.448854e-18,0,4.598473e-18,1.480833e-16,0,0,0,0,0,0
2.917253,3.188122,-10.633198,1.891618e-12,0,0,1.891618e-12,-2.220446e-16,2.220446e-16,-5.726604e-17,0,0,0,0,2.293103e-16,-2.293103e-16,2.293103e-16,-37.769184,3.057471e-16,2.647847e-16,0,0,0,0,0,0
2.964544,3.188122,-10.613188,1.891618e-12,0,0,1.891618e-12,0,2.220446e-16,-7.852189e-18,0,0,0,0,2.223219e-16,-2.773315e-19,1.112996e-16,-42.977211,1.483995e-16,1.483072e-16,0,0,0,0,0,0
3.011834,3.188122,-10.587951,1.891618e-12,0,0,1.891618e-12,2.220446e-16,-2.220446e-16,2.453919e-17,0,0,0,0,2.233965e-16,-2.233965e-16,2.233965e-16,48.153217,2.978619e-16,2.57956e-16,0,0,0,0,0,0
3.059125,3.188122,-10.559151,1.891618e-12,0,0,1.891618e-12,-2.220446e-16,2.220446e-16,2.605027e-17,0,0,0,0,2.235675e-16,-2.235675e-16,2.235675e-16,-48.345676,2.9809e-16,2.581535e-16,0,0,0,0,0,0
3.106415,3.188122,-10.527059,1.891618e-12,0,0,1.891618e-12,-2.220446e-16,-1.110223e-16,1.365812e-17,0,0,0,0,-1.093668e-16,-2.237002e-16,5.71667e-17,-51.911327,7.622227e-17,1.29164e-16,0,0,0,0,0,0
3.153705,3.188122,-10.491213,1.891618e-12,0,0,1.891618e-12,4.440892e-16,2.220446e-16,2.606068e-17,0,0,0,0,4.471069e-16,2.19027e-16,1.140399e-16,51.605049,1.520533e-16,2.581549e-16,0,0,0,0,0,0
3.200996,3.188122,-10.449697,1.891618e-12,0,0,1.891618e-12,-2.220446e-16,2.220446e-16,4.624821e-18,0,0,0,0,2.220928e-16,-2.220928e-16,2.220928e-16,-45.596603,2.961237e-16,2.564506e-16,0,0,0,0,0,0
3.248286,3.188122,-10.397465,1.891618e-12,0,0,1.891618e-12,4.440892e-16,0,3.637284e-17,0,0,0,0,4.470486e-16,-2.959373e-18,2.25004e-16,49.651463,3.000053e-16,2.990237e-16,0,0,0,0,0,0
3.295577,3.188122,-10.334171,1.891618e-12,0,0,1.891618e-12,0,-2.220446e-16,2.398511e-18,0,0,0,0,2.590553e-20,-2.220705e-16,1.110482e-16,45.618809,1.480643e-16,1.480556e-16,0,0,0,0,0,0
3.342867,3.188122,-10.260993,1.891618e-12,0,0,1.891618e-12,0,0,-8.547939e-18,0,0,0,0,8.547939e-18,-8.547939e-18,8.547939e-18,0,1.139725e-17,9.870309e-18,0,0,0,0,0,0
1.451249,3.140832,-10.005897,1.891618e-12,0,0,1.891618e-12,-1.110223e-16,2.220446e-16,5.938424e-17,0,0,0,0,2.323158e-16,-1.212935e-16,1.768046e-16,-54.812874,2.357395e-16,2.074835e-16,0,0,0,0,0,0
1.49854,3.140832,-10.063929,1.891618e-12,0,0,1.891618e-12,0,-2.220446e-16,1.789191e-17,0,0,0,0,1.432453e-18,-2.234771e-16,1.124548e-16,49.577423,1.499397e-16,1.494645e-16,0,0,0,0,0,0
1.54583,3.140832,-10.167781,1.891618e-12,0,0,1.891618e-12,2.220446e-16,0,-1.263461e-17,0,0,0,0,2.227612e-16,-7.166118e-19,1.117389e-16,41.753765,1.489852e-16,1.487469e-16,0,0,0,0,0,0
1.593121,3.140832,-10.248448,1.891618e-12,0,0,1.891618e-12,-1.110223e-16,0,5.382847e-17,0,0,0,0,2.181279e-17,-1.328351e-16,7.732394e-17,-67.059158,1.030986e-16,9.665164e-17,0,0,0,0,0,0
1.640411,3.140832,-10.315847,1.891618e-12,0,0,1.891618e-12,-3.330669e-16,2.220446e-16,-2.293348e-17,0,0,0,0,2.229904e-16,-3.340128e-16,2.785016e-16,-42.638287,3.713355e-16,3.237083e-16,0,0,0,0,0,0
1.687701,3.140832,-10.373763,1.891618e-12,0,0,1.891618e-12,0,2.220446e-16,-1.529005e-17,0,0,0,0,2.230925e-16,-1.047932e-18,1.120702e-16,-41.079262,1.49427e-16,1.490789e-16,0,0,0,0,0,0
1.734992,3.140832,-10.425186,1.891618e-12,0,0,1.891618e-12,-2.220446e-16,-1.110223e-16,1.655862e-18,0,0,0,0,-1.109976e-16,-2.220693e-16,5.553584e-17,-45.854294,7.404779e-17,1.282118e-16,0,0,0,0,0,0
1.782282,3.140832,-10.470018,1.891618e-12,0,0,1.891618e-12,-2.220446e-16,0,2.62331e-17,0,0,0,0,3.057176e-18,-2.251018e-16,1.140795e-16,-51.647202,1.52106e-16,1.510972e-16,0,0,0,0,0,0
1.829573,3.140832,-10.508558,1.891618e-12,0,0,1.891618e-12,2.220446e-16,0,2.829171e-17,0,0,0,0,2.255927e-16,-3.548079e-18,1.145704e-16,52.148178,1.527605e-16,1.515917e-16,0,0,0,0,0,0
1.876863,3.140832,-10.542031,1.891618e-12,0,0,1.891618e-12,0,-1.110223e-16,1.159013e-17,0,0,0,0,1.197041e-18,-1.122193e-16,5.670819e-17,50.89666,7.561093e-17,7.521508e-17,0,0,0,0,0,0
1.924154,3.140832,-10.573012,1.891618e-12,0,0,1.891618e-12,-1.110223e-16,2.220446e-16,2.778017e-17,0,0,0,0,2.243458e-16,-1.133235e-16,1.688346e-16,-49.735279,2.251128e-16,1.984348e-16,0,0,0,0,0,0
1.971444,3.140832,-10.60264,1.891618e-12,0,0,1.891618e-12,0,0,3.389838e-17,0,0,0,0,3.389838e-17,-3.389838e-17,3.389838e-17,90,4.519784e-17,3.914248e-17,0,0,0,0,0,0
2.018735,3.140832,-10.629764,1.891618e-12,0,0,1.891618e-12,-2.220446e-16,0,-3.311403e-17,0,0,0,0,4.833169e-18,-2.268778e-16,1.158555e-16,-36.696011,1.54474e-16,1.528884e-16,0,0,0,0,0,0
2.066025,3.140832,-10.652788,1.891618e-12,0,0,1.891618e-12,-2.220446e-16,2.220446e-16,1.951428e-17,0,0,0,0,2.229005e-16,-2.229005e-16,2.229005e-16,-47.511253,2.972006e-16,2.573833e-16,0,0,0,0,0,0
2.113316,3.140832,-10.671058,1.891618e-12,0,0,1.891618e-12,2.220446e-16,2.220446e-16,2.222047e-17,0,0,0,0,2.442651e-16,1.998241e-16,2.222047e-17,90,2.962729e-17,1.502369e-16,0,0,0,0,0,0
2.160606,3.140832,-10.685373,1.891618e-12,0,0,1.891618e-12,0,0,-7.343142e-18,0,0,0,0,7.343142e-18,-7.343142e-18,7.343142e-18,0,9.790856e-18,8.47913e-18,0,0,0,0,0,0
2.207896,3.140832,-10.69853,1.891618e-12,0,0,1.891618e-12,-2.220446e-16,-1.110223e-16,-1.486088e-17,0,0,0,0,-1.090675e-16,-2.239994e-16,5.746594e-17,-37.506397,7.662125e-17,1.293409e-16,0,0,0,0,0,0
2.255187,3.140832,-10.711733,1.891618e-12,0,0,1.891618e-12,2.220446e-16,-1.110223e-16,3.58333e-17,0,0,0,0,2.258561e-16,-1.148338e-16,1.70345e-16,51.071644,2.271266e-16,2.001485e-16,0,0,0,0,0,0
2.302477,3.140832,-10.722662,1.891618e-12,0,0,1.891618e-12,2.220446e-16,-1.110223e-16,8.672444e-17,0,0,0,0,2.43273e-16,-1.322507e-16,1.877619e-16,58.754414,2.503492e-16,2.199445e-16,0,0,0,0,0,0
2.349768,3.140832,-10.729636,1.891618e-12,0,0,1.891618e-12,-1.110223e-16,4.440892e-16,-3.628889e-17,0,0,0,0,4.464514e-16,-1.133845e-16,2.79918e-16,-41.275574,3.73224e-16,3.417573e-16,0,0,0,0,0,0
2.397058,3.140832,-10.732807,1.891618e-12,0,0,1.891618e-12,0,0,-9.666582e-18,0,0,0,0,9.666582e-18,-9.666582e-18,9.666582e-18,0,1.288878e-17,1.116201e-17,0,0,0,0,0,0
2.444349,3.140832,-10.733848,1.891618e-12,0,0,1.891618e-12,0,-1.110223e-16,-9.075876e-18,0,0,0,0,7.370437e-19,-1.117593e-16,5.62482e-17,40.35725,7.499759e-17,7.475313e-17,0,0,0,0,0,0
2.491639,3.140832,-10.734499,1.891618e-12,0,0,1.891618e-12,0,0,-1.388223e-17,0,0,0,0,1.388223e-17,-1.388223e-17,1.388223e-17,0,1.850964e-17,1.602982e-17,0,0,0,0,0,0
2.53893,3.140832,-10.734835,1.891618e-12,0,0,1.891618e-12,-1.110223e-16,4.440892e-16,9.090702e-18,0,0,0,0,4.44238e-16,-1.111711e-16,2.777046e-16,-45.937962,3.702728e-16,3.393411e-16,0,0,0,0,0,0
2.58622,3.140832,-10.73253,1.891618e-12,0,0,1.891618e-12,2.220446e-16,0,-1.718603e-17,0,0,0,0,2.233669e-16,-1.322307e-18,1.123446e-16,40.600285,1.497928e-16,1.49354e-16,0,0,0,0,0,0
2.633511,3.140832,-10.725275,1.891618e-12,0,0,1.891618e-12,0,0,-8.835693e-18,0,0,0,0,8.835693e-18,-8.835693e-18,8.835693e-18,0,1.178092e-17,1.020258e-17,0,0,0,0,0,0
2.680801,3.140832,-10.712532,1.891618e-12,0,0,1.891618e-12,0,0,-1.587434e-17,0,0,0,0,1.587434e-17,-1.587434e-17,1.587434e-17,0,2.116579e-17,1.833011e-17,0,0,0,0,0,0
2.728091,3.140832,-10.696167,1.891618e-12,0,0,1.891618e-12,2.220446e-16,2.220446e-16,-1.436972e-17,0,0,0,0,2.364143e-16,2.076749e-16,1.436972e-17,0,1.915963e-17,1.489568e-16,0,0,0,0,0,0
2.775382,3.140832,-10.679582,1.891618e-12,0,0,1.891618e-12,2.220446e-16,2.220446e-16,-1.125409e-17,0,0,0,0,2.332987e-16,2.107905e-16,1.125409e-17,0,1.500545e-17,1.48599e-16,0,0,0,0,0,0
2.822672,3.140832,-10.664661,1.891618e-12,0,0,1.891618e-12,2.220446e-16,-2.220446e-16,-1.728443e-17,0,0,0,0,2.227163e-16,-2.227163e-16,2.227163e-16,42.774475,2.969551e-16,2.571707e-16,0,0,0,0,0,0
2.869963,3.140832,-10.65108,1.891618e-12,0,0,1.891618e-12,-1.110223e-16,2.220446e-16,6.414348e-18,0,0,0,0,2.221681e-16,-1.111458e-16,1.666569e-16,-46.102882,2.222092e-16,1.95965e-16,0,0,0,0,0,0
2.917253,3.140832,-10.635357,1.891618e-12,0,0,1.891618e-12,-1.110223e-16,2.220446e-16,-1.844693e-17,0,0,0,0,2.230632e-16,-1.120409e-16,1.67552e-16,-41.839554,2.234027e-16,1.9698e-16,0,0,0,0,0,0
2.964544,3.140832,-10.614904,1.891618e-12,0,0,1.891618e-12,0,-1.110223e-16,1.878806e-17,0,0,0,0,3.093276e-18,-1.141156e-16,5.860443e-17,54.349339,7.813924e-17,7.712882e-17,0,0,0,0,0,0
3.011834,3.140832,-10.589353,1.891618e-12,0,0,1.891618e-12,0,-1.110223e-16,6.852457e-18,0,0,0,0,4.213445e-19,-1.114436e-16,5.59325e-17,48.518578,7.457666e-17,7.443661e-17,0,0,0,0,0,0
3.059125,3.140832,-10.560794,1.891618e-12,0,0,1.891618e-12,0,0,4.729975e-17,0,0,0,0,4.729975e-17,-4.729975e-17,4.729975e-17,90,6.306633e-17,5.461705e-17,0,0,0,0,0,0
3.106415,3.140832,-10.529278,1.891618e-12,0,0,1.891618e-12,-2.220446e-16,-1.110223e-16,1.50025e-17,0,0,0,0,-1.090307e-16,-2.240362e-16,5.750272e-17,-52.561756,7.667029e-17,1.293627e-16,0,0,0,0,0,0
3.153705,3.140832,-10.494368,1.891618e-12,0,0,1.891618e-12,0,0,-3.391175e-17,0,0,0,0,3.391175e-17,-3.391175e-17,3.391175e-17,0,4.521567e-17,3.915792e-17,0,0,0,0,0,0
3.200996,3.140832,-10.453984,1.891618e-12,0,0,1.891618e-12,2.220446e-16,2.220446e-16,-5.623675e-20,0,0,0,0,2.221009e-16,2.219884e-16,5.623675e-20,0,7.498233e-20,1.480298e-16,0,0,0,0,0,0
3.248286,3.140832,-10.402546,1.891618e-12,0,0,1.891618e-12,0,-1.110223e-16,8.019919e-17,0,0,0,0,4.20255e-17,-1.530478e-16,9.753665e-17,72.655167,1.300489e-16,1.185499e-16,0,0,0,0,0,0
3.295577,3.140832,-10.340183,1.891618e-12,0,0,1.891618e-12,2.220446e-16,0,-7.144232e-18,0,0,0,0,2.222742e-16,-2.296264e-19,1.112519e-16,43.159061,1.483359e-16,1.482594e-16,0,0,0,0,0,0
3.342867,3.140832,-10.267663,1.891618e-12,0,0,1.891618e-12,2.220446e-16,0,-7.996076e-17,0,0,0,0,2.478422e-16,-2.579756e-17,1.368199e-16,27.11886,1.824265e-16,1.744642e-16,0,0,0,0,0,0
1.451249,3.093542,-10.005598,1.891618e-12,0,0,1.891618e-12,-1.110223e-16,2.220446e-16,1.74135e-17,0,0,0,0,2.229525e-16,-1.119302e-16,1.674414e-16,-47.984707,2.232552e-16,1.968545e-16,0,0,0,0,0,0
1.49854,3.093542,-10.064405,1.891618e-12,0,0,1.891618e-12,-1.110223e-16,-2.220446e-16,-4.495535e-18,0,0,0,0,-1.108406e-16,-2.222263e-16,5.569289e-17,42.68502,7.425718e-17,1.283026e-16,0,0,0,0,0,0
1.54583,3.093542,-10.169303,1.891618e-12,0,0,1.891618e-12,0,2.220446e-16,-9.667793e-18,0,0,0,0,2.224647e-16,-4.201394e-19,1.114424e-16,-42.511627,1.485899e-16,1.484501e-16,0,0,0,0,0,0
1.593121,3.093542,-10.250527,1.891618e-12,0,0,1.891618e-12,0,-1.110223e-16,5.380302e-17,0,0,0,0,2.179507e-17,-1.328174e-16,7.730622e-17,67.052383,1.03075e-16,9.663274e-17,0,0,0,0,0,0
1.640411,3.093542,-10.319014,1.891618e-12,0,0,1.891618e-12,2.220446e-16,-1.110223e-16,3.880966e-18,0,0,0,0,2.220898e-16,-1.110675e-16,1.665787e-16,45.667503,2.221049e-16,1.958762e-16,0,0,0,0,0,0
1.687701,3.093542,-10.378162,1.891618e-12,0,0,1.891618e-12,-2.220446e-16,0,-1.480081e-17,0,0,0,0,9.82232e-19,-2.230268e-16,1.120045e-16,-41.203224,1.493394e-16,1.490131e-16,0,0,0,0,0,0
1.734992,3.093542,-10.430104,1.891618e-12,0,0,1.891618e-12,-2.220446e-16,4.440892e-16,4.945298e-17,0,0,0,0,4.477405e-16,-2.256959e-16,3.367182e-16,-49.222721,4.489576e-16,3.957909e-16,0,0,0,0,0,0
1.782282,3.093542,-10.47502,1.891618e-12,0,0,1.891618e-12,-2.220446e-16,0,1.660581e-17,0,0,0,0,1.235012e-18,-2.232796e-16,1.122573e-16,-49.253387,1.496764e-16,1.492664e-16,0,0,0,0,0,0
1.829573,3.093542,-10.513679,1.891618e-12,0,0,1.891618e-12,0,-1.110223e-16,-5.466059e-17,0,0,0,0,2.239436e-17,-1.334167e-16,7.790551e-17,22.721165,1.03874e-16,9.727234e-17,0,0,0,0,0,0
1.876863,3.093542,-10.547672,1.891618e-12,0,0,1.891618e-12,2.220446e-16,-2.220446e-16,5.863983e-18,0,0,0,0,2.22122e-16,-2.22122e-16,2.22122e-16,45.756386,2.961627e-16,2.564844e-16,0,0,0,0,0,0
1.924154,3.093542,-10.579419,1.891618e-12,0,0,1.891618e-12,0,-1.110223e-16,8.701999e-18,0,0,0,0,6.779287e-19,-1.117002e-16,5.618908e-17,49.454628,7.491877e-17,7.469382e-17,0,0,0,0,0,0
1.971444,3.093542,-10.609557,1.891618e-12,0,0,1.891618e-12,0,4.440892e-16,-2.155964e-17,0,0,0,0,4.451334e-16,-1.044221e-18,2.230888e-16,-42.227097,2.974518e-16,2.971043e-16,0,0,0,0,0,0
2.018735,3.093542,-10.636962,1.891618e-12,0,0,1.891618e-12,2.220446e-16,2.220446e-16,3.554933e-17,0,0,0,0,2.575939e-16,1.864953e-16,3.554933e-17,90,4.739911e-17,1.536158e-16,0,0,0,0,0,0
2.066025,3.093542,-10.659883,1.891618e-12,0,0,1.891618e-12,2.220446e-16,-1.110223e-16,-1.609425e-17,0,0,0,0,2.228205e-16,-1.117982e-16,1.673093e-16,42.23996,2.230791e-16,1.967048e-16,0,0,0,0,0,0
2.113316,3.093542,-10.677841,1.891618e-12,0,0,1.891618e-12,2.220446e-16,2.220446e-16,-1.277057e-17,0,0,0,0,2.348152e-16,2.09274e-16,1.277057e-17,0,1.702743e-17,1.487624e-16,0,0,0,0,0,0
2.160606,3.093542,-10.691836,1.891618e-12,0,0,1.891618e-12,0,2.220446e-16,-3.264148e-17,0,0,0,0,2.267436e-16,-4.698993e-18,1.157213e-16,-36.808113,1.542951e-16,1.527528e-16,0,0,0,0,0,0
2.207896,3.093542,-10.704614,1.891618e-12,0,0,1.891618e-12,-2.220446e-16,2.220446e-16,-4.234284e-17,0,0,0,0,2.260458e-16,-2.260458e-16,2.260458e-16,-39.601799,3.013945e-16,2.610153e-16,0,0,0,0,0,0
2.255187,3.093542,-10.717451,1.891618e-12,0,0,1.891618e-12,-3.330669e-16,2.220446e-16,-2.938891e-17,0,0,0,0,2.235962e-16,-3.346185e-16,2.791073e-16,-41.977886,3.721431e-16,3.244032e-16,0,0,0,0,0,0
2.302477,3.093542,-10.727909,1.891618e-12,0,0,1.891618e-12,2.220446e-16,2.220446e-16,-1.152474e-17,0,0,0,0,2.335693e-16,2.105199e-16,1.152474e-17,0,1.536632e-17,1.486267e-16,0,0,0,0,0,0
2.349768,3.093542,-10.733914,1.891618e-12,0,0,1.891618e-12,0,2.220446e-16,3.155212e-19,0,0,0,0,2.220451e-16,-4.483489e-22,1.110228e-16,-45.081417,1.480303e-16,1.480302e-16,0,0,0,0,0,0
2.397058,3.093542,-10.73585,1.891618e-12,0,0,1.891618e-12,2.220446e-16,2.220446e-16,1.521844e-17,0,0,0,0,2.372631e-16,2.068262e-16,1.521844e-17,90,2.029126e-17,1.490691e-16,0,0,0,0,0,0
2.444349,3.093542,-10.735836,1.891618e-12,0,0,1.891618e-12,-2.220446e-16,2.220446e-16,3.2948e-17,0,0,0,0,2.244758e-16,-2.244758e-16,2.244758e-16,-49.220112,2.993011e-16,2.592023e-16,0,0,0,0,0,0
2.491639,3.093542,-10.735861,1.891618e-12,0,0,1.891618e-12,2.220446e-16,2.220446e-16,-2.214738e-17,0,0,0,0,2.44192e-16,1.998972e-16,2.214738e-17,0,2.952984e-17,1.502225e-16,0,0,0,0,0,0
2.53893,3.093542,-10.735838,1.891618e-12,0,0,1.891618e-12,2.220446e-16,-1.110223e-16,1.368374e-17,0,0,0,0,2.226058e-16,-1.115835e-16,1.670947e-16,47.348667,2.227929e-16,1.964614e-16,0,0,0,0,0,0
2.58622,3.093542,-10.732838,1.891618e-12,0,0,1.891618e-12,2.220446e-16,0,-3.766807e-17,0,0,0,0,2.282607e-16,-6.216067e-18,1.172384e-16,35.629379,1.563178e-16,1.542876e-16,0,0,0,0,0,0
2.633511,3.093542,-10.7248,1.891618e-12,0,0,1.891618e-12,2.220446e-16,-1.110223e-16,-1.474605e-17,0,0,0,0,2.226962e-16,-1.116739e-16,1.67185e-16,42.46991,2.229134e-16,1.965638e-16,0,0,0,0,0,0
2.680801,3.093542,-10.711912,1.891618e-12,0,0,1.891618e-12,2.220446e-16,-2.220446e-16,8.382982e-18,0,0,0,0,2.222028e-16,-2.222028e-16,2.222028e-16,46.081047,2.962704e-16,2.565777e-16,0,0,0,0,0,0
2.728091,3.093542,-10.696217,1.891618e-12,0,0,1.891618e-12,-1.110223e-16,0,5.588044e-19,0,0,0,0,2.812539e-21,-1.110251e-16,5.551396e-17,-45.288376,7.401862e-17,7.401768e-17,0,0,0,0,0,0
2.775382,3.093542,-10.681146,1.891618e-12,0,0,1.891618e-12,-1.110223e-16,2.220446e-16,-1.264645e-18,0,0,0,0,2.220494e-16,-1.110271e-16,1.665383e-16,-44.782455,2.22051e-16,1.958304e-16,0,0,0,0,0,0
2.822672,3.093542,-10.66752,1.891618e-12,0,0,1.891618e-12,-1.110223e-16,0,1.765929e-17,0,0,0,0,2.741217e-18,-1.137635e-16,5.825237e-17,-53.823494,7.766982e-17,7.67724e-17,0,0,0,0,0,0
2.869963,3.093542,-10.654558,1.891618e-12,0,0,1.891618e-12,0,2.220446e-16,-1.070571e-17,0,0,0,0,2.225596e-16,-5.149734e-19,1.115373e-16,-42.246044,1.487164e-16,1.48545e-16,0,0,0,0,0,0
2.917253,3.093542,-10.638988,1.891618e-12,0,0,1.891618e-12,2.220446e-16,0,-1.12572e-18,0,0,0,0,2.220503e-16,-5.707018e-21,1.11028e-16,44.709534,1.480374e-16,1.480354e-16,0,0,0,0,0,0
2.964544,3.093542,-10.618653,1.891618e-12,0,0,1.891618e-12,2.220446e-16,0,-1.215071e-18,0,0,0,0,2.220512e-16,-6.64891e-21,1.110289e-16,44.686478,1.480386e-16,1.480364e-16,0,0,0,0,0,0
3.011834,3.093542,-10.593387,1.891618e-12,0,0,1.891618e-12,2.220446e-16,-2.220446e-16,1.860328e-17,0,0,0,0,2.228226e-16,-2.228226e-16,2.228226e-16,47.394577,2.970967e-16,2.572933e-16,0,0,0,0,0,0
3.059125,3.093542,-10.565352,1.891618e-12,0,0,1.891618e-12,-1.110223e-16,-2.220446e-16,-2.292365e-17,0,0,0,0,-1.064753e-16,-2.265916e-16,6.005816e-17,33.780769,8.007754e-17,1.309017e-16,0,0,0,0,0,0
3.106415,3.093542,-10.534353,1.891618e-12,0,0,1.891618e-12,0,2.220446e-16,1.890951e-17,0,0,0,0,2.236434e-16,-1.598838e-18,1.126211e-16,-49.832981,1.501615e-16,1.496314e-16,0,0,0,0,0,0
3.153705,3.093542,-10.500143,1.891618e-12,0,0,1.891618e-12,2.220446e-16,-2.220446e-16,9.975144e-18,0,0,0,0,2.222686e-16,-2.222686e-16,2.222686e-16,46.286114,2.963581e-16,2.566536e-16,0,0,0,0,0,0
3.200996,3.093542,-10.460249,1.891618e-12,0,0,1.891618e-12,4.440892e-16,2.220446e-16,-2.799228e-17,0,0,0,0,4.475637e-16,2.185701e-16,1.144968e-16,37.924423,1.526624e-16,2.584244e-16,0,0,0,0,0,0
3.248286,3.093542,-10.409918,1.891618e-12,0,0,1.891618e-12,2.220446e-16,0,2.516912e-17,0,0,0,0,2.248618e-16,-2.817217e-18,1.138395e-16,51.38662,1.51786e-16,1.508557e-16,0,0,0,0,0,0
3.295577,3.093542,-10.348691,1.891618e-12,0,0,1.891618e-12,0,-2.220446e-16,9.074169e-21,0,0,0,0,3.708288e-25,-2.220446e-16,1.110223e-16,45.002342,1.480297e-16,1.480297e-16,0,0,0,0,0,0
3.342867,3.093542,-10.27687,1.891618e-12,0,0,1.891618e-12,-4.440892e-16,-3.330669e-16,5.653414e-17,0,0,0,0,-3.093468e-16,-4.678094e-16,7.923128e-17,-67.761551,1.056417e-16,2.747328e-16,0,0,0,0,0,0
1.451249,3.046251,-10.007389,1.891618e-12,0,0,1.891618e-12,-3.330669e-16,2.220446e-16,-2.984478e-17,0,0,0,0,2.236445e-16,-3.346668e-16,2.791557e-16,-41.931366,3.722076e-16,3.244587e-16,0,0,0,0,0,0
1.49854,3.046251,-10.067642,1.891618e-12,0,0,1.891618e-12,-2.220446e-16,4.440892e-16,-3.944058e-17,0,0,0,0,4.464163e-16,-2.243717e-16,3.35394e-16,-41.623344,4.47192e-16,3.942889e-16,0,0,0,0,0,0
1.54583,3.046251,-10.173736,1.891618e-12,0,0,1.891618e-12,0,2.220446e-16,-2.16715e-17,0,0,0,0,2.2414e-16,-2.09536e-18,1.131177e-16,-39.47739,1.508235e-16,1.5013e-16,0,0,0,0,0,0
1.593121,3.046251,-10.255412,1.891618e-12,0,0,1.891618e-12,0,2.220446e-16,-1.735462e-17,0,0,0,0,2.233928e-16,-1.348221e-18,1.123705e-16,-40.557808,1.498274e-16,1.4938e-16,0,0,0,0,0,0
1.640411,3.046251,-10.32402,1.891618e-12,0,0,1.891618e-12,-1.110223e-16,0,3.33886e-17,0,0,0,0,9.2676e-18,-1.202899e-16,6.477875e-17,-60.512939,8.637167e-17,8.345417e-17,0,0,0,0,0,0
1.687701,3.046251,-10.382844,1.891618e-12,0,0,1.891618e-12,0,0,2.064001e-17,0,0,0,0,2.064001e-17,-2.064001e-17,2.064001e-17,90,2.752002e-17,2.383304e-17,0,0,0,0,0,0
1.734992,3.046251,-10.434106,1.891618e-12,0,0,1.891618e-12,-2.220446e-16,2.220446e-16,-1.529129e-17,0,0,0,0,2.225705e-16,-2.225705e-16,2.225705e-16,-43.030251,2.967607e-16,2.570023e-16,0,0,0,0,0,0
1.782282,3.046251,-10.478337,1.891618e-12,0,0,1.891618e-12,0,2.220446e-16,-1.01427e-17,0,0,0,0,2.22507e-16,-4.623421e-19,1.114847e-16,-42.390053,1.486462e-16,1.484923e-16,0,0,0,0,0,0
1.829573,3.046251,-10.516776,1.891618e-12,0,0,1.891618e-12,-2.220446e-16,0,-2.057202e-17,0,0,0,0,1.889874e-18,-2.239345e-16,1.129122e-16,-39.751183,1.505496e-16,1.499236e-16,0,0,0,0,0,0
1.876863,3.046251,-10.551157,1.891618e-12,0,0,1.891618e-12,-4.440892e-16,2.220446e-16,7.536522e-18,0,0,0,0,2.221299e-16,-4.441744e-16,3.331522e-16,-45.648125,4.442029e-16,3.917465e-16,0,0,0,0,0,0
1.924154,3.046251,-10.58344,1.891618e-12,0,0,1.891618e-12,-2.220446e-16,2.220446e-16,1.113318e-17,0,0,0,0,2.223235e-16,-2.223235e-16,2.223235e-16,-46.435184,2.964314e-16,2.567171e-16,0,0,0,0,0,0
1.971444,3.046251,-10.61392,1.891618e-12,0,0,1.891618e-12,2.220446e-16,0,7.165102e-18,0,0,0,0,2.222756e-16,-2.309686e-19,1.112533e-16,46.846302,1.483377e-16,1.482608e-16,0,0,0,0,0,0
2.018735,3.046251,-10.641387,1.891618e-12,0,0,1.891618e-12,0,2.220446e-16,-1.537271e-17,0,0,0,0,2.231038e-16,-1.059239e-18,1.120815e-16,-41.058331,1.49442e-16,1.490902e-16,0,0,0,0,0,0
2.066025,3.046251,-10.66424,1.891618e-12,0,0,1.891618e-12,2.220446e-16,-1.110223e-16,-4.709837e-18,0,0,0,0,2.221112e-16,-1.110889e-16,1.666e-16,44.190006,2.221334e-16,1.959004e-16,0,0,0,0,0,0
2.113316,3.046251,-10.682151,1.891618e-12,0,0,1.891618e-12,0,2.220446e-16,-5.59008e-18,0,0,0,0,2.221852e-16,-1.406439e-19,1.111629e-16,-43.558769,1.482173e-16,1.481704e-16,0,0,0,0,0,0
2.160606,3.046251,-10.696048,1.891618e-12,0,0,1.891618e-12,-2.220446e-16,2.220446e-16,-9.066051e-18,0,0,0,0,2.222296e-16,-2.222296e-16,2.222296e-16,-43.830959,2.963062e-16,2.566087e-16,0,0,0,0,0,0
2.207896,3.046251,-10.708573,1.891618e-12,0,0,1.891618e-12,-2.220446e-16,-1.110223e-16,6.478571e-18,0,0,0,0,-1.106455e-16,-2.224214e-16,5.588792e-17,-48.328369,7.451723e-17,1.284156e-16,0,0,0,0,0,0
2.255187,3.046251,-10.720933,1.891618e-12,0,0,1.891618e-12,0,-1.110223e-16,-3.907597e-17,0,0,0,0,1.237419e-17,-1.233965e-16,6.788534e-17,27.428566,9.051379e-17,8.668396e-17,0,0,0,0,0,0
2.302477,3.046251,-10.730865,1.891618e-12,0,0,1.891618e-12,-1.110223e-16,-1.110223e-16,1.926254e-17,0,0,0,0,-9.175976e-17,-1.302849e-16,1.926254e-17,90,2.568339e-17,7.728472e-17,0,0,0,0,0,0
2.349768,3.046251,-10.736242,1.891618e-12,0,0,1.891618e-12,0,2.220446e-16,-3.272575e-17,0,0,0,0,2.267674e-16,-4.722789e-18,1.157451e-16,-36.788101,1.543268e-16,1.527769e-16,0,0,0,0,0,0
2.397058,3.046251,-10.737164,1.891618e-12,0,0,1.891618e-12,4.440892e-16,0,-5.236681e-18,0,0,0,0,4.441509e-16,-6.174212e-20,2.221064e-16,44.324497,2.961418e-16,2.961212e-16,0,0,0,0,0,0
2.444349,3.046251,-10.736175,1.891618e-12,0,0,1.891618e-12,-1.110223e-16,-1.110223e-16,4.209308e-17,0,0,0,0,-6.892923e-17,-1.531154e-16,4.209308e-17,90,5.612411e-17,8.854738e-17,0,0,0,0,0,0
2.491639,3.046251,-10.735617,1.891618e-12,0,0,1.891618e-12,-1.110223e-16,2.220446e-16,-1.265874e-17,0,0,0,0,2.22525e-16,-1.115027e-16,1.670139e-16,-42.826561,2.226852e-16,1.963697e-16,0,0,0,0,0,0
2.53893,3.046251,-10.73531,1.891618e-12,0,0,1.891618e-12,6.661338e-16,2.220446e-16,7.316165e-18,0,0,0,0,6.662543e-16,2.219241e-16,2.221651e-16,45.943581,2.962201e-16,3.91741e-16,0,0,0,0,0,0
2.58622,3.046251,-10.732266,1.891618e-12,0,0,1.891618e-12,0,2.220446e-16,2.774931e-20,0,0,0,0,2.220446e-16,-3.467881e-24,1.110223e-16,-45.00716,1.480297e-16,1.480297e-16,0,0,0,0,0,0
2.633511,3.046251,-10.724314,1.891618e-12,0,0,1.891618e-12,-2.220446e-16,-1.110223e-16,-1.180423e-17,0,0,0,0,-1.097811e-16,-2.232858e-16,5.675234e-17,-38.997543,7.566978e-17,1.289201e-16,0,0,0,0,0,0
2.680801,3.046251,-10.711776,1.891618e-12,0,0,1.891618e-12,0,0,-3.482789e-17,0,0,0,0,3.482789e-17,-3.482789e-17,3.482789e-17,0,4.643719e-17,4.021578e-17,0,0,0,0,0,0
2.728091,3.046251,-10.69716,1.891618e-12,0,0,1.891618e-12,0,2.220446e-16,-2.716539e-17,0,0,0,0,2.253198e-16,-3.275161e-18,1.142975e-16,-38.125389,1.523966e-16,1.513167e-16,0,0,0,0,0,0
2.775382,3.046251,-10.683521,1.891618e-12,0,0,1.891618e-12,2.220446e-16,-2.220446e-16,-7.144209e-18,0,0,0,0,2.221595e-16,-2.221595e-16,2.221595e-16,44.078583,2.962127e-16,2.565277e-16,0,0,0,0,0,0
2.822672,3.046251,-10.670955,1.891618e-12,0,0,1.891618e-12,2.220446e-16,2.220446e-16,-5.963992e-18,0,0,0,0,2.280086e-16,2.160806e-16,5.963992e-18,0,7.95199e-18,1.481898e-16,0,0,0,0,0,0
2.869963,3.046251,-10.658661,1.891618e-12,0,0,1.891618e-12,0,-1.110223e-16,2.236561e-17,0,0,0,0,4.336224e-18,-1.153585e-16,5.984738e-17,55.972324,7.97965e-17,7.839108e-17,0,0,0,0,0,0
2.917253,3.046251,-10.643496,1.891618e-12,0,0,1.891618e-12,-2.220446e-16,2.220446e-16,-2.540892e-17,0,0,0,0,2.234937e-16,-2.234937e-16,2.234937e-16,-41.735973,2.979916e-16,2.580683e-16,0,0,0,0,0,0
2.964544,3.046251,-10.623674,1.891618e-12,0,0,1.891618e-12,2.220446e-16,-2.220446e-16,7.076726e-19,0,0,0,0,2.220457e-16,-2.220457e-16,2.220457e-16,45.091301,2.96061e-16,2.563963e-16,0,0,0,0,0,0
3.011834,3.046251,-10.599167,1.891618e-12,0,0,1.891618e-12,0,0,-1.919811e-17,0,0,0,0,1.919811e-17,-1.919811e-17,1.919811e-17,0,2.559748e-17,2.216807e-17,0,0,0,0,0,0
3.059125,3.046251,-10.571592,1.891618e-12,0,0,1.891618e-12,-1.110223e-16,0,5.950302e-18,0,0,0,0,3.179989e-19,-1.113403e-16,5.582915e-17,-48.05912,7.443887e-17,7.43331e-17,0,0,0,0,0,0
3.106415,3.046251,-10.540762,1.891618e-12,0,0,1.891618e-12,-2.220446e-16,2.220446e-16,-1.432468e-17,0,0,0,0,2.225062e-16,-2.225062e-16,2.225062e-16,-43.154408,2.966749e-16,2.56928e-16,0,0,0,0,0,0
3.153705,3.046251,-10.506509,1.891618e-12,0,0,1.891618e-12,-2.220446e-16,0,3.212649e-17,0,0,0,0,4.554784e-18,-2.265994e-16,1.155771e-16,-53.06942,1.541028e-16,1.526072e-16,0,0,0,0,0,0
3.200996,3.046251,-10.466228,1.891618e-12,0,0,1.891618e-12,-2.220446e-16,2.220446e-16,4.145127e-17,0,0,0,0,2.258805e-16,-2.258805e-16,2.258805e-16,-50.287128,3.011741e-16,2.608244e-16,0,0,0,0,0,0
3.248286,3.046251,-10.416777,1.891618e-12,0,0,1.891618e-12,-3.330669e-16,0,6.165751e-17,0,0,0,0,1.104762e-17,-3.441145e-16,1.775811e-16,-55.15831,2.367748e-16,2.331795e-16,0,0,0,0,0,0
3.295577,3.046251,-10.356705,1.891618e-12,0,0,1.891618e-12,-3.330669e-16,0,5.585955e-18,0,0,0,0,9.365721e-20,-3.331606e-16,1.666271e-16,-45.960564,2.221695e-16,2.221383e-16,0,0,0,0,0,0
3.342867,3.046251,-10.286041,1.891618e-12,0,0,1.891618e-12,-2.220446e-16,2.220446e-16,-3.024538e-18,0,0,0,0,2.220652e-16,-2.220652e-16,2.220652e-16,-44.609802,2.960869e-16,2.564188e-16,0,0,0,0,0,0
1.451249,2.998961,-10.011614,1.891618e-12,0,0,1.891618e-12,2.220446e-16,-1.110223e-16,-5.274517e-17,0,0,0,0,2.301979e-16,-1.191756e-16,1.746867e-16,36.212875,2.329156e-16,2.050776e-16,0,0,0,0,0,0
1.49854,2.998961,-10.073506,1.891618e-12,0,0,1.891618e-12,0,-1.110223e-16,3.893653e-17,0,0,0,0,1.229402e-17,-1.233163e-16,6.780517e-17,62.523258,9.04069e-17,8.660026e-17,0,0,0,0,0,0
1.54583,2.998961,-10.180018,1.891618e-12,0,0,1.891618e-12,0,-1.110223e-16,-6.129891e-17,0,0,0,0,2.718737e-17,-1.382097e-16,8.269852e-17,21.081699,1.102647e-16,1.024123e-16,0,0,0,0,0,0
1.593121,2.998961,-10.261501,1.891618e-12,0,0,1.891618e-12,-1.110223e-16,0,-1.335739e-17,0,0,0,0,1.58445e-18,-1.126068e-16,5.70956e-17,-38.235199,7.612747e-17,7.560485e-17,0,0,0,0,0,0
1.640411,2.998961,-10.329001,1.891618e-12,0,0,1.891618e-12,-3.330669e-16,0,-4.831761e-17,0,0,0,0,6.867765e-18,-3.399347e-16,1.734012e-16,-36.910286,2.312016e-16,2.289467e-16,0,0,0,0,0,0
1.687701,2.998961,-10.386119,1.891618e-12,0,0,1.891618e-12,0,0,1.527396e-17,0,0,0,0,1.527396e-17,-1.527396e-17,1.527396e-17,90,2.036528e-17,1.763685e-17,0,0,0,0,0,0
1.734992,2.998961,-10.435891,1.891618e-12,0,0,1.891618e-12,-2.220446e-16,2.220446e-16,-1.709346e-17,0,0,0,0,2.227016e-16,-2.227016e-16,2.227016e-16,-42.798965,2.969354e-16,2.571536e-16,0,0,0,0,0,0
1.782282,2.998961,-10.479223,1.891618e-12,0,0,1.891618e-12,2.220446e-16,2.220446e-16,-1.127146e-17,0,0,0,0,2.333161e-16,2.107732e-16,1.127146e-17,0,1.502861e-17,1.486008e-16,0,0,0,0,0,0
1.829573,2.998961,-10.517496,1.891618e-12,0,0,1.891618e-12,0,2.220446e-16,2.802353e-18,0,0,0,0,2.2208e-16,-3.536197e-20,1.110577e-16,-45.722958,1.480769e-16,1.480651e-16,0,0,0,0,0,0
1.876863,2.998961,-10.552223,1.891618e-12,0,0,1.891618e-12,0,0,-4.267228e-17,0,0,0,0,4.267228e-17,-4.267228e-17,4.267228e-17,0,5.689637e-17,4.927371e-17,0,0,0,0,0,0
1.924154,2.998961,-10.58476,1.891618e-12,0,0,1.891618e-12,-2.220446e-16,0,8.178924e-18,0,0,0,0,3.008598e-19,-2.223455e-16,1.113232e-16,-47.106663,1.484309e-16,1.483307e-16,0,0,0,0,0,0
1.971444,2.998961,-10.615137,1.891618e-12,0,0,1.891618e-12,-1.110223e-16,0,2.672472e-17,0,0,0,0,6.098089e-18,-1.171204e-16,6.160924e-17,-57.853775,8.214565e-17,8.019028e-17,0,0,0,0,0,0
2.018735,2.998961,-10.64227,1.891618e-12,0,0,1.891618e-12,-1.110223e-16,0,6.091352e-18,0,0,0,0,3.332082e-19,-1.113555e-16,5.584436e-17,-48.131065,7.445915e-17,7.434832e-17,0,0,0,0,0,0
2.066025,2.998961,-10.665127,1.891618e-12,0,0,1.891618e-12,-2.220446e-16,-1.110223e-16,1.135947e-17,0,0,0,0,-1.09872e-16,-2.23195e-16,5.66615e-17,-50.782501,7.554867e-17,1.288668e-16,0,0,0,0,0,0
2.113316,2.998961,-10.683349,1.891618e-12,0,0,1.891618e-12,2.220446e-16,0,3.362227e-17,0,0,0,0,2.270241e-16,-4.979458e-18,1.160018e-16,53.424271,1.54669e-16,1.530362e-16,0,0,0,0,0,0
2.160606,2.998961,-10.697706,1.891618e-12,0,0,1.891618e-12,2.220446e-16,0,7.488684e-18,0,0,0,0,2.222969e-16,-2.52277e-19,1.112746e-16,46.929436,1.483661e-16,1.482821e-16,0,0,0,0,0,0
2.207896,2.998961,-10.71049,1.891618e-12,0,0,1.891618e-12,2.220446e-16,-1.110223e-16,-6.957347e-18,0,0,0,0,2.221899e-16,-1.111676e-16,1.666787e-16,43.80386,2.222383e-16,1.959897e-16,0,0,0,0,0,0
2.255187,2.998961,-10.722862,1.891618e-12,0,0,1.891618e-12,0,0,-2.798593e-17,0,0,0,0,2.798593e-17,-2.798593e-17,2.798593e-17,0,3.731457e-17,3.231537e-17,0,0,0,0,0,0
2.302477,2.998961,-10.732875,1.891618e-12,0,0,1.891618e-12,-1.110223e-16,2.220446e-16,-4.593086e-17,0,0,0,0,2.282625e-16,-1.172402e-16,1.727514e-16,-37.290424,2.303352e-16,2.028799e-16,0,0,0,0,0,0
2.349768,2.998961,-10.738371,1.891618e-12,0,0,1.891618e-12,0,0,4.315403e-18,0,0,0,0,4.315403e-18,-4.315403e-18,4.315403e-18,90,5.753871e-18,4.982998e-18,0,0,0,0,0,0
2.397058,2.998961,-10.738884,1.891618e-12,0,0,1.891618e-12,-1.110223e-16,2.220446e-16,-1.376562e-18,0,0,0,0,2.220503e-16,-1.11028e-16,1.665391e-16,-44.763203,2.220522e-16,1.958314e-16,0,0,0,0,0,0
2.444349,2.998961,-10.737161,1.891618e-12,0,0,1.891618e-12,-2.220446e-16,-1.110223e-16,-5.966368e-17,0,0,0,0,-8.503963e-17,-2.480273e-16,8.149383e-17,-21.467571,1.086584e-16,1.455367e-16,0,0,0,0,0,0
2.491639,2.998961,-10.735954,1.891618e-12,0,0,1.891618e-12,-1.110223e-16,0,1.750174e-17,0,0,0,0,2.693649e-18,-1.137159e-16,5.82048e-17,-53.749596,7.76064e-17,7.672428e-17,0,0,0,0,0,0
2.53893,2.998961,-10.735403,1.891618e-12,0,0,1.891618e-12,-1.110223e-16,-2.220446e-16,-3.152506e-17,0,0,0,0,-1.026952e-16,-2.303717e-16,6.383821e-17,30.20377,8.511762e-17,1.332656e-16,0,0,0,0,0,0
2.58622,2.998961,-10.732699,1.891618e-12,0,0,1.891618e-12,-2.220446e-16,0,-1.158282e-17,0,0,0,0,6.025759e-19,-2.226472e-16,1.116249e-16,-42.021973,1.488332e-16,1.486327e-16,0,0,0,0,0,0
2.633511,2.998961,-10.725216,1.891618e-12,0,0,1.891618e-12,0,-1.110223e-16,2.608186e-17,0,0,0,0,5.821965e-18,-1.168443e-16,6.133311e-17,57.583218,8.177749e-17,7.990756e-17,0,0,0,0,0,0
2.680801,2.998961,-10.713089,1.891618e-12,0,0,1.891618e-12,2.220446e-16,2.220446e-16,-1.113006e-17,0,0,0,0,2.331747e-16,2.109145e-16,1.113006e-17,0,1.484008e-17,1.485866e-16,0,0,0,0,0,0
2.728091,2.998961,-10.699169,1.891618e-12,0,0,1.891618e-12,-3.330669e-16,-1.110223e-16,-2.119767e-18,0,0,0,0,-1.110021e-16,-3.330871e-16,1.110425e-16,-44.453087,1.480567e-16,1.958402e-16,0,0,0,0,0,0
2.775382,2.998961,-10.686203,1.891618e-12,0,0,1.891618e-12,-1.110223e-16,0,-3.901005e-17,0,0,0,0,1.233627e-17,-1.233586e-16,6.784742e-17,-27.451326,9.046322e-17,8.664436e-17,0,0,0,0,0,0
2.822672,2.998961,-10.674195,1.891618e-12,0,0,1.891618e-12,4.440892e-16,-1.110223e-16,5.359312e-17,0,0,0,0,4.49216e-16,-1.161491e-16,2.826826e-16,50.464359,3.7691e-16,3.44778e-16,0,0,0,0,0,0
2.869963,2.998961,-10.662207,1.891618e-12,0,0,1.891618e-12,-3.330669e-16,0,4.347964e-17,0,0,0,0,5.58241e-18,-3.386493e-16,1.721159e-16,-52.316257,2.294878e-16,2.276498e-16,0,0,0,0,0,0
2.917253,2.998961,-10.647204,1.891618e-12,0,0,1.891618e-12,2.220446e-16,-2.220446e-16,2.096787e-17,0,0,0,0,2.230324e-16,-2.230324e-16,2.230324e-16,47.697247,2.973766e-16,2.575357e-16,0,0,0,0,0,0
2.964544,2.998961,-10.627754,1.891618e-12,0,0,1.891618e-12,-1.110223e-16,2.220446e-16,-4.181792e-18,0,0,0,0,2.220971e-16,-1.110748e-16,1.665859e-16,-44.280781,2.221146e-16,1.958845e-16,0,0,0,0,0,0
3.011834,2.998961,-10.603752,1.891618e-12,0,0,1.891618e-12,0,0,-2.631332e-17,0,0,0,0,2.631332e-17,-2.631332e-17,2.631332e-17,0,3.508442e-17,3.0384e-17,0,0,0,0,0,0
3.059125,2.998961,-10.576275,1.891618e-12,0,0,1.891618e-12,2.220446e-16,0,-5.073803e-19,0,0,0,0,2.220458e-16,-1.159377e-21,1.110235e-16,44.86908,1.480313e-16,1.480309e-16,0,0,0,0,0,0
3.106415,2.998961,-10.545326,1.891618e-12,0,0,1.891618e-12,0,2.220446e-16,-6.337672e-18,0,0,0,0,2.222253e-16,-1.807448e-19,1.112031e-16,-43.366417,1.482707e-16,1.482105e-16,0,0,0,0,0,0
3.153705,2.998961,-10.510571,1.891618e-12,0,0,1.891618e-12,0,0,1.343154e-17,0,0,0,0,1.343154e-17,-1.343154e-17,1.343154e-17,90,1.790872e-17,1.550941e-17,0,0,0,0,0,0
3.200996,2.998961,-10.469688,1.891618e-12,0,0,1.891618e-12,-2.220446e-16,-1.110223e-16,-1.21441e-18,0,0,0,0,-1.11009e-16,-2.220579e-16,5.552443e-17,-44.373375,7.403258e-17,1.282052e-16,0,0,0,0,0,0
3.248286,2.998961,-10.42067,1.891618e-12,0,0,1.891618e-12,0,-1.110223e-16,-1.947581e-17,0,0,0,0,3.317372e-18,-1.143397e-16,5.882852e-17,35.333416,7.843803e-17,7.735595e-17,0,0,0,0,0,0
3.295577,2.998961,-10.361715,1.891618e-12,0,0,1.891618e-12,-1.110223e-16,-1.110223e-16,1.187041e-17,0,0,0,0,-9.91519e-17,-1.228927e-16,1.187041e-17,90,1.582721e-17,7.527334e-17,0,0,0,0,0,0
3.342867,2.998961,-10.293009,1.891618e-12,0,0,1.891618e-12,0,2.220446e-16,-1.143876e-17,0,0,0,0,2.226323e-16,-5.877191e-19,1.1161e-16,-42.05875,1.488134e-16,1.486178e-16,0,0,0,0,0,0
1.451249,2.95167,-10.016308,1.891618e-12,0,0,1.891618e-12,-1.110223e-16,0,7.411147e-18,0,0,0,0,4.925362e-19,-1.115148e-16,5.600369e-17,-48.802219,7.467159e-17,7.450795e-17,0,0,0,0,0,0
1.49854,2.95167,-10.079311,1.891618e-12,0,0,1.891618e-12,-1.110223e-16,2.220446e-16,-5.194106e-17,0,0,0,0,2.299567e-16,-1.189344e-16,1.744456e-16,-36.338764,2.325941e-16,2.048037e-16,0,0,0,0,0,0
1.54583,2.95167,-10.185326,1.891618e-12,0,0,1.891618e-12,-2.220446e-16,0,3.593843e-18,0,0,0,0,5.815193e-20,-2.221028e-16,1.110805e-16,-45.927021,1.481073e-16,1.480879e-16,0,0,0,0,0,0
1.593121,2.95167,-10.265986,1.891618e-12,0,0,1.891618e-12,0,0,3.068465e-17,0,0,0,0,3.068465e-17,-3.068465e-17,3.068465e-17,90,4.091286e-17,3.543158e-17,0,0,0,0,0,0
1.640411,2.95167,-10.331747,1.891618e-12,0,0,1.891618e-12,0,2.220446e-16,3.916438e-17,0,0,0,0,2.2875e-16,-6.705352e-18,1.177277e-16,-54.715439,1.569702e-16,1.547835e-16,0,0,0,0,0,0
1.687701,2.95167,-10.386932,1.891618e-12,0,0,1.891618e-12,2.220446e-16,2.220446e-16,-5.191939e-17,0,0,0,0,2.73964e-16,1.701252e-16,5.191939e-17,0,6.922585e-17,1.59709e-16,0,0,0,0,0,0
1.734992,2.95167,-10.435403,1.891618e-12,0,0,1.891618e-12,-3.330669e-16,2.220446e-16,-9.994492e-18,0,0,0,0,2.222245e-16,-3.332468e-16,2.777356e-16,-43.968864,3.703142e-16,3.228297e-16,0,0,0,0,0,0
1.782282,2.95167,-10.478221,1.891618e-12,0,0,1.891618e-12,-2.220446e-16,-2.220446e-16,-3.836511e-18,0,0,0,0,-2.182081e-16,-2.258811e-16,3.836511e-18,0,5.115348e-18,1.48096e-16,0,0,0,0,0,0
1.829573,2.95167,-10.51661,1.891618e-12,0,0,1.891618e-12,0,-2.220446e-16,1.039252e-17,0,0,0,0,4.853482e-19,-2.2253e-16,1.115077e-16,47.673866,1.486769e-16,1.485154e-16,0,0,0,0,0,0
1.876863,2.95167,-10.551755,1.891618e-12,0,0,1.891618e-12,2.220446e-16,0,-2.893332e-18,0,0,0,0,2.220823e-16,-3.76949e-20,1.1106e-16,44.253582,1.4808e-16,1.480674e-16,0,0,0,0,0,0
1.924154,2.95167,-10.584243,1.891618e-12,0,0,1.891618e-12,0,0,3.21842e-17,0,0,0,0,3.21842e-17,-3.21842e-17,3.21842e-17,90,4.291227e-17,3.716312e-17,0,0,0,0,0,0
1.971444,2.95167,-10.613897,1.891618e-12,0,0,1.891618e-12,-1.110223e-16,0,2.059792e-18,0,0,0,0,3.820207e-20,-1.110605e-16,5.554935e-17,-46.062519,7.40658e-17,7.405307e-17,0,0,0,0,0,0
2.018735,2.95167,-10.64026,1.891618e-12,0,0,1.891618e-12,-1.110223e-16,2.220446e-16,3.240817e-18,0,0,0,0,2.220761e-16,-1.110538e-16,1.66565e-16,-45.55743,2.220866e-16,1.958607e-16,0,0,0,0,0,0
2.066025,2.95167,-10.662888,1.891618e-12,0,0,1.891618e-12,2.220446e-16,-4.440892e-16,3.456935e-18,0,0,0,0,2.220626e-16,-4.441072e-16,3.330849e-16,45.297329,4.441131e-16,3.916702e-16,0,0,0,0,0,0
2.113316,2.95167,-10.681547,1.891618e-12,0,0,1.891618e-12,0,-1.110223e-16,2.464518e-17,0,0,0,0,5.224941e-18,-1.162472e-16,6.073609e-17,56.969849,8.098146e-17,7.929721e-17,0,0,0,0,0,0
2.160606,2.95167,-10.696931,1.891618e-12,0,0,1.891618e-12,0,-2.220446e-16,2.656636e-17,0,0,0,0,3.13427e-18,-2.251789e-16,1.141566e-16,51.728592,1.522088e-16,1.511748e-16,0,0,0,0,0,0
2.207896,2.95167,-10.710629,1.891618e-12,0,0,1.891618e-12,-2.220446e-16,2.220446e-16,2.762101e-18,0,0,0,0,2.220618e-16,-2.220618e-16,2.220618e-16,-45.356342,2.960824e-16,2.564149e-16,0,0,0,0,0,0
2.255187,2.95167,-10.723591,1.891618e-12,0,0,1.891618e-12,0,-2.220446e-16,5.141917e-18,0,0,0,0,1.190083e-19,-2.221636e-16,1.111413e-16,46.325859,1.481884e-16,1.481488e-16,0,0,0,0,0,0
2.302477,2.95167,-10.734338,1.891618e-12,0,0,1.891618e-12,0,0,2.934234e-17,0,0,0,0,2.934234e-17,-2.934234e-17,2.934234e-17,90,3.912312e-17,3.388162e-17,0,0,0,0,0,0
2.349768,2.95167,-10.740448,1.891618e-12,0,0,1.891618e-12,2.220446e-16,2.220446e-16,-2.014291e-18,0,0,0,0,2.240589e-16,2.200303e-16,2.014291e-18,0,2.685722e-18,1.48048e-16,0,0,0,0,0,0
2.397058,2.95167,-10.741204,1.891618e-12,0,0,1.891618e-12,-2.220446e-16,2.220446e-16,-1.449551e-17,0,0,0,0,2.225172e-16,-2.225172e-16,2.225172e-16,-43.132458,2.966897e-16,2.569408e-16,0,0,0,0,0,0
2.444349,2.95167,-10.739137,1.891618e-12,0,0,1.891618e-12,2.220446e-16,2.220446e-16,-3.039552e-17,0,0,0,0,2.524401e-16,1.916491e-16,3.039552e-17,0,4.052735e-17,1.521337e-16,0,0,0,0,0,0
2.491639,2.95167,-10.737225,1.891618e-12,0,0,1.891618e-12,-1.110223e-16,0,-1.576317e-17,0,0,0,0,2.1947e-18,-1.13217e-16,5.770585e-17,-37.073681,7.694114e-17,7.62201e-17,0,0,0,0,0,0
2.53893,2.95167,-10.736158,1.891618e-12,0,0,1.891618e-12,0,0,1.062859e-17,0,0,0,0,1.062859e-17,-1.062859e-17,1.062859e-17,90,1.417145e-17,1.227284e-17,0,0,0,0,0,0
2.58622,2.95167,-10.73361,1.891618e-12,0,0,1.891618e-12,2.220446e-16,0,-2.166877e-17,0,0,0,0,2.241394e-16,-2.094837e-18,1.131171e-16,39.478065,1.508229e-16,1.501294e-16,0,0,0,0,0,0
2.633511,2.95167,-10.726652,1.891618e-12,0,0,1.891618e-12,0,0,2.735914e-17,0,0,0,0,2.735914e-17,-2.735914e-17,2.735914e-17,90,3.647885e-17,3.159161e-17,0,0,0,0,0,0
2.680801,2.95167,-10.715063,1.891618e-12,0,0,1.891618e-12,4.440892e-16,2.220446e-16,4.115209e-17,0,0,0,0,4.514706e-16,2.146632e-16,1.184037e-16,55.168991,1.578717e-16,2.607612e-16,0,0,0,0,0,0
2.728091,2.95167,-10.701553,1.891618e-12,0,0,1.891618e-12,2.220446e-16,2.220446e-16,-1.815576e-18,0,0,0,0,2.238602e-16,2.20229e-16,1.815576e-18,0,2.420768e-18,1.480446e-16,0,0,0,0,0,0
2.775382,2.95167,-10.688688,1.891618e-12,0,0,1.891618e-12,2.220446e-16,2.220446e-16,3.061903e-17,0,0,0,0,2.526636e-16,1.914256e-16,3.061903e-17,90,4.082538e-17,1.521934e-16,0,0,0,0,0,0
2.822672,2.95167,-10.676617,1.891618e-12,0,0,1.891618e-12,2.220446e-16,2.220446e-16,3.481036e-18,0,0,0,0,2.255256e-16,2.185636e-16,3.481036e-18,90,4.641382e-18,1.480843e-16,0,0,0,0,0,0
2.869963,2.95167,-10.664155,1.891618e-12,0,0,1.891618e-12,0,0,3.74356e-17,0,0,0,0,3.74356e-17,-3.74356e-17,3.74356e-17,90,4.991414e-17,4.322691e-17,0,0,0,0,0,0
2.917253,2.95167,-10.648639,1.891618e-12,0,0,1.891618e-12,0,0,-3.205628e-17,0,0,0,0,3.205628e-17,-3.205628e-17,3.205628e-17,0,4.274171e-17,3.70154e-17,0,0,0,0,0,0
2.964544,2.95167,-10.628878,1.891618e-12,0,0,1.891618e-12,-1.110223e-16,2.220446e-16,-2.080571e-17,0,0,0,0,2.233392e-16,-1.123169e-16,1.678281e-16,-41.43935,2.237708e-16,1.972931e-16,0,0,0,0,0,0
3.011834,2.95167,-10.604594,1.891618e-12,0,0,1.891618e-12,-2.220446e-16,2.220446e-16,8.00951e-18,0,0,0,0,2.22189e-16,-2.22189e-16,2.22189e-16,-46.032928,2.96252e-16,2.565618e-16,0,0,0,0,0,0
3.059125,2.95167,-10.576696,1.891618e-12,0,0,1.891618e-12,-1.110223e-16,2.220446e-16,6.122823e-19,0,0,0,0,2.220457e-16,-1.110234e-16,1.665346e-16,-45.105328,2.220461e-16,1.958262e-16,0,0,0,0,0,0
3.106415,2.95167,-10.545234,1.891618e-12,0,0,1.891618e-12,2.220446e-16,2.220446e-16,-2.561431e-17,0,0,0,0,2.476589e-16,1.964303e-16,2.561431e-17,0,3.415241e-17,1.509556e-16,0,0,0,0,0,0
3.153705,2.95167,-10.509769,1.891618e-12,0,0,1.891618e-12,-4.440892e-16,2.220446e-16,1.939304e-18,0,0,0,0,2.220502e-16,-4.440949e-16,3.330725e-16,-45.166801,4.440967e-16,3.916563e-16,0,0,0,0,0,0
3.200996,2.95167,-10.468614,1.891618e-12,0,0,1.891618e-12,-2.220446e-16,0,4.741479e-17,0,0,0,0,9.700993e-18,-2.317456e-16,1.207233e-16,-56.563046,1.609644e-16,1.578301e-16,0,0,0,0,0,0
3.248286,2.95167,-10.419698,1.891618e-12,0,0,1.891618e-12,0,2.220446e-16,-2.090797e-17,0,0,0,0,2.239962e-16,-1.951565e-18,1.129739e-16,-39.667419,1.506318e-16,1.499855e-16,0,0,0,0,0,0
3.295577,2.95167,-10.361561,1.891618e-12,0,0,1.891618e-12,0,2.220446e-16,1.712862e-17,0,0,0,0,2.233581e-16,-1.313539e-18,1.123358e-16,-49.385246,1.497811e-16,1.493452e-16,0,0,0,0,0,0
3.342867,2.95167,-10.295288,1.891618e-12,0,0,1.891618e-12,-2.220446e-16,-1.110223e-16,-4.355479e-17,0,0,0,0,-9.597491e-17,-2.37092e-16,7.055854e-17,-25.940899,9.407806e-17,1.377097e-16,0,0,0,0,0,0
1.451249,2.90438,-10.019362,1.891618e-12,0,0,1.891618e-12,2.220446e-16,-3.330669e-16,1.525492e-18,0,0,0,0,2.220488e-16,-3.330711e-16,2.775599e-16,45.157452,3.700799e-16,3.226282e-16,0,0,0,0,0,0
1.49854,2.90438,-10.082849,1.891618e-12,0,0,1.891618e-12,2.220446e-16,2.220446e-16,7.236068e-18,0,0,0,0,2.292807e-16,2.148085e-16,7.236068e-18,90,9.648091e-18,1.482654e-16,0,0,0,0,0,0
1.54583,2.90438,-10.187764,1.891618e-12,0,0,1.891618e-12,2.220446e-16,0,4.259627e-17,0,0,0,0,2.299357e-16,-7.891085e-18,1.189134e-16,55.495232,1.585512e-16,1.559874e-16,0,0,0,0,0,0
1.593121,2.90438,-10.267448,1.891618e-12,0,0,1.891618e-12,-1.110223e-16,-1.110223e-16,-1.8656e-17,0,0,0,0,-9.23663e-17,-1.296783e-16,1.8656e-17,0,2.487467e-17,7.708607e-17,0,0,0,0,0,0
1.640411,2.90438,-10.332042,1.891618e-12,0,0,1.891618e-12,2.220446e-16,2.220446e-16,-1.418949e-17,0,0,0,0,2.362341e-16,2.078551e-16,1.418949e-17,0,1.891932e-17,1.489337e-16,0,0,0,0,0,0
1.687701,2.90438,-10.386236,1.891618e-12,0,0,1.891618e-12,0,-2.220446e-16,4.269252e-17,0,0,0,0,7.925598e-18,-2.299702e-16,1.189479e-16,55.516876,1.585972e-16,1.560224e-16,0,0,0,0,0,0
1.734992,2.90438,-10.434173,1.891618e-12,0,0,1.891618e-12,4.440892e-16,0,2.58657e-17,0,0,0,0,4.455907e-16,-1.501455e-18,2.235461e-16,48.322186,2.980614e-16,2.975622e-16,0,0,0,0,0,0
1.782282,2.90438,-10.477258,1.891618e-12,0,0,1.891618e-12,4.440892e-16,0,2.201256e-17,0,0,0,0,4.451776e-16,-1.088448e-18,2.23133e-16,47.83078,2.975107e-16,2.971486e-16,0,0,0,0,0,0
1.829573,2.90438,-10.516288,1.891618e-12,0,0,1.891618e-12,-4.440892e-16,0,2.394701e-17,0,0,0,0,1.287583e-18,-4.453768e-16,2.233322e-16,-48.077713,2.977763e-16,2.97348e-16,0,0,0,0,0,0
1.876863,2.90438,-10.551998,1.891618e-12,0,0,1.891618e-12,0,-2.220446e-16,4.077642e-17,0,0,0,0,7.251398e-18,-2.29296e-16,1.182737e-16,55.083672,1.576983e-16,1.553376e-16,0,0,0,0,0,0
1.924154,2.90438,-10.584249,1.891618e-12,0,0,1.891618e-12,-1.110223e-16,2.220446e-16,2.973691e-18,0,0,0,0,2.220712e-16,-1.110489e-16,1.6656e-16,-45.511494,2.2208e-16,1.95855e-16,0,0,0,0,0,0
1.971444,2.90438,-10.612758,1.891618e-12,0,0,1.891618e-12,-1.110223e-16,2.220446e-16,-2.428083e-17,0,0,0,0,2.238054e-16,-1.127831e-16,1.682942e-16,-40.852318,2.243923e-16,1.978218e-16,0,0,0,0,0,0
2.018735,2.90438,-10.637995,1.891618e-12,0,0,1.891618e-12,-2.220446e-16,2.220446e-16,-2.295266e-17,0,0,0,0,2.232278e-16,-2.232278e-16,2.232278e-16,-42.04916,2.97637e-16,2.577612e-16,0,0,0,0,0,0
2.066025,2.90438,-10.66018,1.891618e-12,0,0,1.891618e-12,-2.220446e-16,0,2.23696e-17,0,0,0,0,2.231176e-18,-2.242758e-16,1.132535e-16,-50.695927,1.510046e-16,1.502664e-16,0,0,0,0,0,0
2.113316,2.90438,-10.679279,1.891618e-12,0,0,1.891618e-12,2.220446e-16,0,-2.618019e-17,0,0,0,0,2.250896e-16,-3.045021e-18,1.140673e-16,38.36573,1.520898e-16,1.51085e-16,0,0,0,0,0,0
2.160606,2.90438,-10.695836,1.891618e-12,0,0,1.891618e-12,2.220446e-16,-1.110223e-16,2.921747e-19,0,0,0,0,2.220449e-16,-1.110226e-16,1.665337e-16,45.050262,2.220449e-16,1.958252e-16,0,0,0,0,0,0
2.207896,2.90438,-10.710802,1.891618e-12,0,0,1.891618e-12,4.440892e-16,2.220446e-16,-4.650508e-18,0,0,0,0,4.441866e-16,2.219472e-16,1.111197e-16,43.800697,1.481595e-16,2.564512e-16,0,0,0,0,0,0
2.255187,2.90438,-10.724846,1.891618e-12,0,0,1.891618e-12,0,2.220446e-16,-4.652645e-17,0,0,0,0,2.313995e-16,-9.354865e-18,1.203772e-16,-33.631378,1.605029e-16,1.574773e-16,0,0,0,0,0,0
2.302477,2.90438,-10.736852,1.891618e-12,0,0,1.891618e-12,-1.110223e-16,0,-3.909131e-17,0,0,0,0,1.238302e-17,-1.234053e-16,6.789417e-17,-27.423275,9.052556e-17,8.669318e-17,0,0,0,0,0,0
2.349768,2.90438,-10.744115,1.891618e-12,0,0,1.891618e-12,0,2.220446e-16,-2.603619e-17,0,0,0,0,2.250567e-16,-3.012057e-18,1.140344e-16,-38.400944,1.520458e-16,1.510518e-16,0,0,0,0,0,0
2.397058,2.90438,-10.74565,1.891618e-12,0,0,1.891618e-12,-1.110223e-16,-1.110223e-16,-3.626058e-17,0,0,0,0,-7.476172e-17,-1.472829e-16,3.626058e-17,0,4.834744e-17,8.503709e-17,0,0,0,0,0,0
2.444349,2.90438,-10.743379,1.891618e-12,0,0,1.891618e-12,0,0,3.312388e-17,0,0,0,0,3.312388e-17,-3.312388e-17,3.312388e-17,90,4.416517e-17,3.824816e-17,0,0,0,0,0,0
2.491639,2.90438,-10.740378,1.891618e-12,0,0,1.891618e-12,2.220446e-16,-1.110223e-16,5.713925e-18,0,0,0,0,2.221426e-16,-1.111203e-16,1.666314e-16,45.982552,2.221753e-16,1.959361e-16,0,0,0,0,0,0
2.53893,2.90438,-10.738002,1.891618e-12,0,0,1.891618e-12,2.220446e-16,-1.110223e-16,-4.33984e-17,0,0,0,0,2.276065e-16,-1.165842e-16,1.720954e-16,37.696827,2.294605e-16,2.021352e-16,0,0,0,0,0,0
2.58622,2.90438,-10.735081,1.891618e-12,0,0,1.891618e-12,0,-1.110223e-16,-1.212499e-17,0,0,0,0,1.30877e-18,-1.123311e-16,5.681992e-17,38.839355,7.57599e-17,7.532743e-17,0,0,0,0,0,0
2.633511,2.90438,-10.728466,1.891618e-12,0,0,1.891618e-12,-1.110223e-16,-1.110223e-16,-5.732634e-19,0,0,0,0,-1.10449e-16,-1.115956e-16,5.732634e-19,0,7.643511e-19,7.401783e-17,0,0,0,0,0,0
2.680801,2.90438,-10.717607,1.891618e-12,0,0,1.891618e-12,2.220446e-16,-1.110223e-16,3.497827e-17,0,0,0,0,2.256783e-16,-1.14656e-16,1.701672e-16,50.93092,2.268896e-16,1.999468e-16,0,0,0,0,0,0
2.728091,2.90438,-10.704378,1.891618e-12,0,0,1.891618e-12,2.220446e-16,0,2.036093e-17,0,0,0,0,2.238962e-16,-1.851606e-18,1.128739e-16,50.196136,1.504986e-16,1.498852e-16,0,0,0,0,0,0
2.775382,2.90438,-10.691377,1.891618e-12,0,0,1.891618e-12,0,2.220446e-16,-3.18462e-17,0,0,0,0,2.265218e-16,-4.477186e-18,1.154995e-16,-36.997364,1.539993e-16,1.525288e-16,0,0,0,0,0,0
2.822672,2.90438,-10.678726,1.891618e-12,0,0,1.891618e-12,2.220446e-16,0,-1.075801e-17,0,0,0,0,2.225646e-16,-5.200056e-19,1.115423e-16,42.23267,1.487231e-16,1.4855e-16,0,0,0,0,0,0
2.869963,2.90438,-10.665276,1.891618e-12,0,0,1.891618e-12,0,0,-2.505515e-17,0,0,0,0,2.505515e-17,-2.505515e-17,2.505515e-17,0,3.340686e-17,2.893119e-17,0,0,0,0,0,0
2.917253,2.90438,-10.648639,1.891618e-12,0,0,1.891618e-12,0,0,-3.985635e-17,0,0,0,0,3.985635e-17,-3.985635e-17,3.985635e-17,0,5.314179e-17,4.602215e-17,0,0,0,0,0,0
2.964544,2.90438,-10.627875,1.891618e-12,0,0,1.891618e-12,-2.220446e-16,0,-1.998391e-17,0,0,0,0,1.784206e-18,-2.238288e-16,1.128065e-16,-39.898041,1.504087e-16,1.498175e-16,0,0,0,0,0,0
3.011834,2.90438,-10.602673,1.891618e-12,0,0,1.891618e-12,-2.220446e-16,0,2.45864e-17,0,0,0,0,2.689802e-18,-2.247344e-16,1.137121e-16,-51.243443,1.516161e-16,1.507275e-16,0,0,0,0,0,0
3.059125,2.90438,-10.574092,1.891618e-12,0,0,1.891618e-12,2.220446e-16,0,-1.989487e-17,0,0,0,0,2.238131e-16,-1.768465e-18,1.127908e-16,39.9203,1.503877e-16,1.498017e-16,0,0,0,0,0,0
3.106415,2.90438,-10.541861,1.891618e-12,0,0,1.891618e-12,0,-1.110223e-16,-1.36719e-17,0,0,0,0,1.658848e-18,-1.126812e-16,5.717e-17,38.081966,7.622667e-17,7.567978e-17,0,0,0,0,0,0
3.153705,2.90438,-10.505555,1.891618e-12,0,0,1.891618e-12,0,0,1.571192e-17,0,0,0,0,1.571192e-17,-1.571192e-17,1.571192e-17,90,2.094923e-17,1.814257e-17,0,0,0,0,0,0
3.200996,2.90438,-10.464062,1.891618e-12,0,0,1.891618e-12,0,2.220446e-16,-3.024115e-17,0,0,0,0,2.260896e-16,-4.044976e-18,1.150673e-16,-37.381485,1.53423e-16,1.520926e-16,0,0,0,0,0,0
3.248286,2.90438,-10.414919,1.891618e-12,0,0,1.891618e-12,2.220446e-16,-1.110223e-16,2.22195e-17,0,0,0,0,2.235204e-16,-1.124981e-16,1.680092e-16,48.799866,2.240123e-16,1.974986e-16,0,0,0,0,0,0
3.295577,2.90438,-10.357679,1.891618e-12,0,0,1.891618e-12,2.220446e-16,0,4.694178e-18,0,0,0,0,2.221438e-16,-9.919387e-20,1.111215e-16,46.210552,1.48162e-16,1.481289e-16,0,0,0,0,0,0
3.342867,2.90438,-10.2946,1.891618e-12,0,0,1.891618e-12,2.220446e-16,-1.110223e-16,-9.702109e-17,0,0,0,0,2.482454e-16,-1.372231e-16,1.927342e-16,29.887629,2.56979e-16,2.256063e-16,0,0,0,0,0,0
1.451249,2.857089,-10.019663,1.891618e-12,0,0,1.891618e-12,-2.220446e-16,2.220446e-16,-4.387335e-17,0,0,0,0,2.263375e-16,-2.263375e-16,2.263375e-16,-39.411507,3.017834e-16,2.613521e-16,0,0,0,0,0,0
1.49854,2.857089,-10.083139,1.891618e-12,0,0,1.891618e-12,4.440892e-16,0,-4.742148e-17,0,0,0,0,4.490966e-16,-5.007378e-18,2.27052e-16,38.972301,3.02736e-16,3.010807e-16,0,0,0,0,0,0
1.54583,2.857089,-10.187127,1.891618e-12,0,0,1.891618e-12,-2.220446e-16,0,-3.535895e-17,0,0,0,0,5.494679e-18,-2.275393e-16,1.16517e-16,-36.167049,1.55356e-16,1.535572e-16,0,0,0,0,0,0
1.593121,2.857089,-10.26637,1.891618e-12,0,0,1.891618e-12,-1.110223e-16,0,-2.579799e-17,0,0,0,0,5.701789e-18,-1.167241e-16,6.121294e-17,-32.537025,8.161726e-17,7.97846e-17,0,0,0,0,0,0
1.640411,2.857089,-10.330841,1.891618e-12,0,0,1.891618e-12,-1.110223e-16,-2.220446e-16,-5.292799e-17,0,0,0,0,-8.983365e-17,-2.432333e-16,7.66998e-17,23.182302,1.022664e-16,1.420203e-16,0,0,0,0,0,0
1.687701,2.857089,-10.385014,1.891618e-12,0,0,1.891618e-12,0,-2.220446e-16,2.881533e-17,0,0,0,0,3.678504e-18,-2.257231e-16,1.147008e-16,52.27491,1.529344e-16,1.517231e-16,0,0,0,0,0,0
1.734992,2.857089,-10.433052,1.891618e-12,0,0,1.891618e-12,-3.330669e-16,-2.220446e-16,-2.002863e-17,0,0,0,0,-2.185419e-16,-3.365696e-16,5.901384e-17,-35.080181,7.868513e-17,1.971859e-16,0,0,0,0,0,0
1.782282,2.857089,-10.476858,1.891618e-12,0,0,1.891618e-12,-2.220446e-16,2.220446e-16,-2.184303e-17,0,0,0,0,2.231164e-16,-2.231164e-16,2.231164e-16,-42.19088,2.974885e-16,2.576326e-16,0,0,0,0,0,0
1.829573,2.857089,-10.516999,1.891618e-12,0,0,1.891618e-12,2.220446e-16,2.220446e-16,-1.651024e-17,0,0,0,0,2.385548e-16,2.055344e-16,1.651024e-17,0,2.201365e-17,1.492523e-16,0,0,0,0,0,0
1.876863,2.857089,-10.553608,1.891618e-12,0,0,1.891618e-12,0,0,5.155248e-17,0,0,0,0,5.155248e-17,-5.155248e-17,5.155248e-17,90,6.873663e-17,5.952767e-17,0,0,0,0,0,0
1.924154,2.857089,-10.585767,1.891618e-12,0,0,1.891618e-12,-3.330669e-16,2.220446e-16,-2.187216e-18,0,0,0,0,2.220532e-16,-3.330755e-16,2.775644e-16,-44.77425,3.700858e-16,3.226332e-16,0,0,0,0,0,0
1.971444,2.857089,-10.613301,1.891618e-12,0,0,1.891618e-12,0,2.220446e-16,-2.370446e-17,0,0,0,0,2.24547e-16,-2.502377e-18,1.135247e-16,-38.97385,1.513662e-16,1.50539e-16,0,0,0,0,0,0
2.018735,2.857089,-10.637451,1.891618e-12,0,0,1.891618e-12,4.440892e-16,-2.220446e-16,4.903865e-17,0,0,0,0,4.476799e-16,-2.256353e-16,3.366576e-16,49.187843,4.488769e-16,3.957221e-16,0,0,0,0,0,0
2.066025,2.857089,-10.659355,1.891618e-12,0,0,1.891618e-12,2.220446e-16,2.220446e-16,3.001434e-17,0,0,0,0,2.52059e-16,1.920303e-16,3.001434e-17,90,4.001912e-17,1.520327e-16,0,0,0,0,0,0
2.113316,2.857089,-10.679301,1.891618e-12,0,0,1.891618e-12,2.220446e-16,-2.220446e-16,-2.665445e-17,0,0,0,0,2.236387e-16,-2.236387e-16,2.236387e-16,41.577457,2.981849e-16,2.582357e-16,0,0,0,0,0,0
2.160606,2.857089,-10.697312,1.891618e-12,0,0,1.891618e-12,2.220446e-16,-4.440892e-16,5.196416e-17,0,0,0,0,2.260739e-16,-4.481185e-16,3.370962e-16,49.433819,4.494616e-16,3.962196e-16,0,0,0,0,0,0
2.207896,2.857089,-10.713702,1.891618e-12,0,0,1.891618e-12,0,-2.220446e-16,1.450663e-17,0,0,0,0,9.437368e-19,-2.229883e-16,1.11966e-16,48.722164,1.49288e-16,1.489745e-16,0,0,0,0,0,0
2.255187,2.857089,-10.728969,1.891618e-12,0,0,1.891618e-12,-5.551115e-16,2.220446e-16,-3.492795e-18,0,0,0,0,2.220603e-16,-5.551272e-16,3.885938e-16,-44.7425,5.18125e-16,4.622403e-16,0,0,0,0,0,0
2.302477,2.857089,-10.742317,1.891618e-12,0,0,1.891618e-12,-1.110223e-16,-1.110223e-16,-5.303536e-17,0,0,0,0,-5.798694e-17,-1.640577e-16,5.303536e-17,0,7.071381e-17,9.606526e-17,0,0,0,0,0,0
2.349768,2.857089,-10.750986,1.891618e-12,0,0,1.891618e-12,2.220446e-16,2.220446e-16,1.684985e-17,0,0,0,0,2.388944e-16,2.051948e-16,1.684985e-17,90,2.246647e-17,1.493029e-16,0,0,0,0,0,0
2.397058,2.857089,-10.753537,1.891618e-12,0,0,1.891618e-12,-2.220446e-16,0,-2.094753e-17,0,0,0,0,1.958894e-18,-2.240035e-16,1.129812e-16,-39.657562,1.506416e-16,1.499929e-16,0,0,0,0,0,0
2.444349,2.857089,-10.751041,1.891618e-12,0,0,1.891618e-12,2.220446e-16,2.220446e-16,-2.865159e-18,0,0,0,0,2.249098e-16,2.191794e-16,2.865159e-18,0,3.820212e-18,1.480667e-16,0,0,0,0,0,0
2.491639,2.857089,-10.746418,1.891618e-12,0,0,1.891618e-12,-1.110223e-16,-2.220446e-16,-2.763189e-17,0,0,0,0,-1.045253e-16,-2.285416e-16,6.200814e-17,31.768585,8.267752e-17,1.321084e-16,0,0,0,0,0,0
2.53893,2.857089,-10.741981,1.891618e-12,0,0,1.891618e-12,-2.220446e-16,-4.440892e-16,1.831102e-17,0,0,0,0,-2.205447e-16,-4.455891e-16,1.125222e-16,49.68277,1.500296e-16,2.572654e-16,0,0,0,0,0,0
2.58622,2.857089,-10.737859,1.891618e-12,0,0,1.891618e-12,-4.440892e-16,0,-4.482634e-18,0,0,0,0,4.524308e-20,-4.441345e-16,2.220898e-16,-44.421734,2.961198e-16,2.961047e-16,0,0,0,0,0,0
2.633511,2.857089,-10.731155,1.891618e-12,0,0,1.891618e-12,2.220446e-16,0,7.556221e-18,0,0,0,0,2.223014e-16,-2.568426e-19,1.112791e-16,46.946785,1.483722e-16,1.482867e-16,0,0,0,0,0,0
2.680801,2.857089,-10.721058,1.891618e-12,0,0,1.891618e-12,-1.110223e-16,-1.110223e-16,2.571133e-17,0,0,0,0,-8.531097e-17,-1.367336e-16,2.571133e-17,90,3.428177e-17,7.974729e-17,0,0,0,0,0,0
2.728091,2.857089,-10.708238,1.891618e-12,0,0,1.891618e-12,2.220446e-16,0,-2.758075e-17,0,0,0,0,2.254192e-16,-3.374592e-18,1.143969e-16,38.024353,1.525292e-16,1.514169e-16,0,0,0,0,0,0
2.775382,2.857089,-10.694929,1.891618e-12,0,0,1.891618e-12,-1.110223e-16,4.440892e-16,-3.273562e-17,0,0,0,0,4.46013e-16,-1.129461e-16,2.794796e-16,-41.636734,3.726394e-16,3.412785e-16,0,0,0,0,0,0
2.822672,2.857089,-10.681517,1.891618e-12,0,0,1.891618e-12,0,-1.110223e-16,-4.416397e-17,0,0,0,0,1.542505e-17,-1.264474e-16,7.09362e-17,25.747341,9.45816e-17,8.98822e-17,0,0,0,0,0,0
2.869963,2.857089,-10.666934,1.891618e-12,0,0,1.891618e-12,0,0,4.539039e-17,0,0,0,0,4.539039e-17,-4.539039e-17,4.539039e-17,90,6.052052e-17,5.241231e-17,0,0,0,0,0,0
2.917253,2.857089,-10.649069,1.891618e-12,0,0,1.891618e-12,2.220446e-16,0,-8.851133e-18,0,0,0,0,2.223969e-16,-3.522646e-19,1.113746e-16,42.720898,1.484994e-16,1.483821e-16,0,0,0,0,0,0
2.964544,2.857089,-10.627298,1.891618e-12,0,0,1.891618e-12,0,-2.220446e-16,1.175451e-17,0,0,0,0,6.205215e-19,-2.226651e-16,1.116428e-16,48.021843,1.488571e-16,1.486507e-16,0,0,0,0,0,0
3.011834,2.857089,-10.601236,1.891618e-12,0,0,1.891618e-12,0,-1.110223e-16,4.918231e-18,0,0,0,0,2.174492e-19,-1.112398e-16,5.57286e-17,47.531563,7.43048e-17,7.423243e-17,0,0,0,0,0,0
3.059125,2.857089,-10.571944,1.891618e-12,0,0,1.891618e-12,0,2.220446e-16,2.21843e-17,0,0,0,0,2.242393e-16,-2.194724e-18,1.13217e-16,-50.649963,1.50956e-16,1.502298e-16,0,0,0,0,0,0
3.106415,2.857089,-10.539005,1.891618e-12,0,0,1.891618e-12,2.220446e-16,-2.220446e-16,-2.660299e-17,0,0,0,0,2.236326e-16,-2.236326e-16,2.236326e-16,41.584,2.981767e-16,2.582286e-16,0,0,0,0,0,0
3.153705,2.857089,-10.501955,1.891618e-12,0,0,1.891618e-12,0,-1.110223e-16,-1.44417e-17,0,0,0,0,1.847811e-18,-1.128701e-16,5.735896e-17,37.708637,7.647862e-17,7.587018e-17,0,0,0,0,0,0
3.200996,2.857089,-10.459737,1.891618e-12,0,0,1.891618e-12,0,2.220446e-16,1.808363e-17,0,0,0,0,2.235077e-16,-1.463115e-18,1.124854e-16,-49.625626,1.499806e-16,1.494952e-16,0,0,0,0,0,0
3.248286,2.857089,-10.410474,1.891618e-12,0,0,1.891618e-12,-3.330669e-16,0,-3.083482e-17,0,0,0,0,2.830583e-18,-3.358975e-16,1.69364e-16,-39.755047,2.258187e-16,2.248811e-16,0,0,0,0,0,0
3.295577,2.857089,-10.354319,1.891618e-12,0,0,1.891618e-12,0,2.220446e-16,4.599393e-17,0,0,0,0,2.311947e-16,-9.150044e-18,1.201723e-16,-56.251537,1.602298e-16,1.572685e-16,0,0,0,0,0,0
3.342867,2.857089,-10.294757,1.891618e-12,0,0,1.891618e-12,2.220446e-16,-1.110223e-16,-4.28627e-17,0,0,0,0,2.274722e-16,-1.164499e-16,1.71961e-16,37.783192,2.292814e-16,2.019827e-16,0,0,0,0,0,0
1.451249,2.809799,-10.017835,1.891618e-12,0,0,1.891618e-12,0,0,1.816789e-17,0,0,0,0,1.816789e-17,-1.816789e-17,1.816789e-17,90,2.422385e-17,2.097847e-17,0,0,0,0,0,0
1.49854,2.809799,-10.081071,1.891618e-12,0,0,1.891618e-12,-1.110223e-16,-1.110223e-16,-6.313861e-17,0,0,0,0,-4.78837e-17,-1.741609e-16,6.313861e-17,0,8.418481e-17,1.038918e-16,0,0,0,0,0,0
1.54583,2.809799,-10.184758,1.891618e-12,0,0,1.891618e-12,2.220446e-16,-2.220446e-16,-1.660173e-17,0,0,0,0,2.226644e-16,-2.226644e-16,2.226644e-16,42.862045,2.968858e-16,2.571107e-16,0,0,0,0,0,0
1.593121,2.809799,-10.264149,1.891618e-12,0,0,1.891618e-12,2.220446e-16,0,-3.550914e-17,0,0,0,0,2.275849e-16,-5.540343e-18,1.165626e-16,36.131878,1.554169e-16,1.536034e-16,0,0,0,0,0,0
1.640411,2.809799,-10.328979,1.891618e-12,0,0,1.891618e-12,0,-1.110223e-16,-3.326112e-17,0,0,0,0,9.201984e-18,-1.202243e-16,6.471313e-17,29.535421,8.628418e-17,8.338627e-17,0,0,0,0,0,0
1.687701,2.809799,-10.38351,1.891618e-12,0,0,1.891618e-12,0,2.220446e-16,4.887101e-18,0,0,0,0,2.221521e-16,-1.075108e-19,1.111298e-16,-46.260239,1.481731e-16,1.481373e-16,0,0,0,0,0,0
1.734992,2.809799,-10.43191,1.891618e-12,0,0,1.891618e-12,4.440892e-16,-2.220446e-16,-5.7039e-18,0,0,0,0,4.441381e-16,-2.220934e-16,3.331157e-16,44.509441,4.441543e-16,3.917053e-16,0,0,0,0,0,0
1.782282,2.809799,-10.476501,1.891618e-12,0,0,1.891618e-12,-2.220446e-16,2.220446e-16,-7.111848e-18,0,0,0,0,2.221585e-16,-2.221585e-16,2.221585e-16,-44.082752,2.962113e-16,2.565265e-16,0,0,0,0,0,0
1.829573,2.809799,-10.517897,1.891618e-12,0,0,1.891618e-12,-2.220446e-16,-1.110223e-16,-7.700932e-18,0,0,0,0,-1.104907e-16,-2.225762e-16,5.604277e-17,-41.050949,7.47237e-17,1.285055e-16,0,0,0,0,0,0
1.876863,2.809799,-10.555558,1.891618e-12,0,0,1.891618e-12,2.220446e-16,2.220446e-16,5.602676e-17,0,0,0,0,2.780714e-16,1.660178e-16,5.602676e-17,90,7.470234e-17,1.615492e-16,0,0,0,0,0,0
1.924154,2.809799,-10.588013,1.891618e-12,0,0,1.891618e-12,-1.110223e-16,0,-1.144289e-17,0,0,0,0,1.167131e-18,-1.121894e-16,5.667828e-17,-39.176189,7.557104e-17,7.518502e-17,0,0,0,0,0,0
1.971444,2.809799,-10.615309,1.891618e-12,0,0,1.891618e-12,-1.110223e-16,-1.110223e-16,-1.458772e-17,0,0,0,0,-9.643458e-17,-1.2561e-16,1.458772e-17,0,1.945029e-17,7.590742e-17,0,0,0,0,0,0
2.018735,2.809799,-10.63917,1.891618e-12,0,0,1.891618e-12,0,2.220446e-16,-3.662155e-17,0,0,0,0,2.279286e-16,-5.884024e-18,1.169063e-16,-35.872234,1.558751e-16,1.539512e-16,0,0,0,0,0,0
2.066025,2.809799,-10.661723,1.891618e-12,0,0,1.891618e-12,4.440892e-16,2.220446e-16,1.748375e-17,0,0,0,0,4.454574e-16,2.206764e-16,1.123905e-16,49.474709,1.498541e-16,2.571886e-16,0,0,0,0,0,0
2.113316,2.809799,-10.682974,1.891618e-12,0,0,1.891618e-12,-1.110223e-16,2.220446e-16,-5.107429e-18,0,0,0,0,2.221229e-16,-1.111006e-16,1.666118e-16,-44.12167,2.22149e-16,1.959137e-16,0,0,0,0,0,0
2.160606,2.809799,-10.702225,1.891618e-12,0,0,1.891618e-12,0,0,7.434432e-18,0,0,0,0,7.434432e-18,-7.434432e-18,7.434432e-18,90,9.912577e-18,8.584543e-18,0,0,0,0,0,0
2.207896,2.809799,-10.719523,1.891618e-12,0,0,1.891618e-12,-3.330669e-16,0,-1.034287e-17,0,0,0,0,3.208722e-19,-3.333878e-16,1.668543e-16,-43.223053,2.224724e-16,2.223656e-16,0,0,0,0,0,0
2.255187,2.809799,-10.735526,1.891618e-12,0,0,1.891618e-12,-2.220446e-16,-1.110223e-16,9.480844e-18,0,0,0,0,-1.102185e-16,-2.228484e-16,5.631496e-17,-49.846062,7.508661e-17,1.286641e-16,0,0,0,0,0,0
2.302477,2.809799,-10.749742,1.891618e-12,0,0,1.891618e-12,2.220446e-16,4.440892e-16,-3.356902e-17,0,0,0,0,4.490532e-16,2.170806e-16,1.159863e-16,-36.588318,1.546485e-16,2.593085e-16,0,0,0,0,0,0
2.349768,2.809799,-10.76,1.891618e-12,0,0,1.891618e-12,0,2.220446e-16,1.795168e-17,0,0,0,0,2.234866e-16,-1.441978e-18,1.124643e-16,-49.592453,1.499524e-16,1.49474e-16,0,0,0,0,0,0
2.397058,2.809799,-10.763506,1.891618e-12,0,0,1.891618e-12,2.220446e-16,-1.110223e-16,1.920584e-17,0,0,0,0,2.231484e-16,-1.121261e-16,1.676373e-16,48.289349,2.235164e-16,1.970767e-16,0,0,0,0,0,0
2.444349,2.809799,-10.760807,1.891618e-12,0,0,1.891618e-12,-2.220446e-16,0,8.501073e-19,0,0,0,0,3.254625e-21,-2.220479e-16,1.110256e-16,-45.219357,1.480341e-16,1.48033e-16,0,0,0,0,0,0
2.491639,2.809799,-10.754635,1.891618e-12,0,0,1.891618e-12,-1.110223e-16,2.220446e-16,-1.645626e-17,0,0,0,0,2.228557e-16,-1.118334e-16,1.673446e-16,-42.178276,2.231261e-16,1.967447e-16,0,0,0,0,0,0
2.53893,2.809799,-10.747964,1.891618e-12,0,0,1.891618e-12,2.220446e-16,0,8.269996e-18,0,0,0,0,2.223522e-16,-3.075879e-19,1.113299e-16,47.130032,1.484399e-16,1.483374e-16,0,0,0,0,0,0
2.58622,2.809799,-10.742144,1.891618e-12,0,0,1.891618e-12,0,0,1.247908e-17,0,0,0,0,1.247908e-17,-1.247908e-17,1.247908e-17,90,1.663877e-17,1.44096e-17,0,0,0,0,0,0
2.633511,2.809799,-10.735216,1.891618e-12,0,0,1.891618e-12,2.220446e-16,0,4.543115e-17,0,0,0,0,2.309804e-16,-8.93578e-18,1.199581e-16,56.127373,1.599441e-16,1.570503e-16,0,0,0,0,0,0
2.680801,2.809799,-10.72568,1.891618e-12,0,0,1.891618e-12,2.220446e-16,2.220446e-16,-1.450443e-17,0,0,0,0,2.36549e-16,2.075402e-16,1.450443e-17,0,1.933924e-17,1.489742e-16,0,0,0,0,0,0
2.728091,2.809799,-10.713577,1.891618e-12,0,0,1.891618e-12,2.220446e-16,-1.110223e-16,-1.491584e-17,0,0,0,0,2.227112e-16,-1.116889e-16,1.672001e-16,42.440933,2.229335e-16,1.965809e-16,0,0,0,0,0,0
2.775382,2.809799,-10.700202,1.891618e-12,0,0,1.891618e-12,0,-1.110223e-16,2.498561e-17,0,0,0,0,5.363872e-18,-1.163862e-16,6.087502e-17,57.116272,8.11667e-17,7.943912e-17,0,0,0,0,0,0
2.822672,2.809799,-10.68612,1.891618e-12,0,0,1.891618e-12,-2.220446e-16,2.220446e-16,1.854747e-17,0,0,0,0,2.228179e-16,-2.228179e-16,2.228179e-16,-47.387424,2.970905e-16,2.57288e-16,0,0,0,0,0,0
2.869963,2.809799,-10.670586,1.891618e-12,0,0,1.891618e-12,-1.110223e-16,0,-3.635001e-17,0,0,0,0,1.084253e-17,-1.218648e-16,6.635368e-17,-28.391138,8.847157e-17,8.508798e-17,0,0,0,0,0,0
2.917253,2.809799,-10.651812,1.891618e-12,0,0,1.891618e-12,-1.110223e-16,2.220446e-16,-4.406751e-17,0,0,0,0,2.277765e-16,-1.167542e-16,1.722653e-16,-37.589153,2.296871e-16,2.023281e-16,0,0,0,0,0,0
2.964544,2.809799,-10.629446,1.891618e-12,0,0,1.891618e-12,-1.110223e-16,-5.551115e-16,2.601709e-17,0,0,0,0,-1.095033e-16,-5.566306e-16,2.235636e-16,48.341454,2.980848e-16,3.405066e-16,0,0,0,0,0,0
3.011834,2.809799,-10.603167,1.891618e-12,0,0,1.891618e-12,-1.110223e-16,0,4.542225e-18,0,0,0,0,1.855248e-19,-1.112078e-16,5.569668e-17,-47.338917,7.426224e-17,7.420047e-17,0,0,0,0,0,0
3.059125,2.809799,-10.573379,1.891618e-12,0,0,1.891618e-12,2.220446e-16,-1.110223e-16,-3.718962e-17,0,0,0,0,2.261466e-16,-1.151243e-16,1.706355e-16,38.705738,2.275139e-16,2.004782e-16,0,0,0,0,0,0
3.106415,2.809799,-10.539826,1.891618e-12,0,0,1.891618e-12,-2.220446e-16,4.440892e-16,1.420555e-17,0,0,0,0,4.44392e-16,-2.223474e-16,3.333697e-16,-46.221115,4.444929e-16,3.919932e-16,0,0,0,0,0,0
3.153705,2.809799,-10.502011,1.891618e-12,0,0,1.891618e-12,0,-1.110223e-16,-4.547556e-18,0,0,0,0,1.859598e-19,-1.112083e-16,5.569711e-17,42.658352,7.426281e-17,7.420091e-17,0,0,0,0,0,0
3.200996,2.809799,-10.458768,1.891618e-12,0,0,1.891618e-12,6.661338e-16,-2.220446e-16,-2.023895e-18,0,0,0,0,6.661384e-16,-2.220492e-16,4.440938e-16,44.869442,5.921251e-16,5.337339e-16,0,0,0,0,0,0
3.248286,2.809799,-10.409516,1.891618e-12,0,0,1.891618e-12,0,0,9.277281e-19,0,0,0,0,9.277281e-19,-9.277281e-19,9.277281e-19,90,1.236971e-18,1.071248e-18,0,0,0,0,0,0
3.295577,2.809799,-10.354504,1.891618e-12,0,0,1.891618e-12,2.220446e-16,-1.110223e-16,3.183813e-17,0,0,0,0,2.250607e-16,-1.140384e-16,1.695496e-16,50.411648,2.260661e-16,1.99246e-16,0,0,0,0,0,0
3.342867,2.809799,-10.298171,1.891618e-12,0,0,1.891618e-12,-1.110223e-16,0,-5.139502e-17,0,0,0,0,2.013894e-17,-1.311612e-16,7.565009e-17,-23.602463,1.008668e-16,9.486903e-17,0,0,0,0,0,0
1.451249,2.762508,-10.016338,1.891618e-12,0,0,1.891618e-12,2.220446e-16,0,-2.569722e-17,0,0,0,0,2.249797e-16,-2.93514e-18,1.139574e-16,38.483906,1.519433e-16,1.509744e-16,0,0,0,0,0,0
1.49854,2.762508,-10.079431,1.891618e-12,0,0,1.891618e-12,0,-2.220446e-16,-2.497687e-18,0,0,0,0,2.809188e-20,-2.220727e-16,1.110504e-16,44.355614,1.480672e-16,1.480578e-16,0,0,0,0,0,0
1.54583,2.762508,-10.182948,1.891618e-12,0,0,1.891618e-12,2.220446e-16,0,-2.739752e-18,0,0,0,0,2.220784e-16,-3.379997e-20,1.110561e-16,44.293186,1.480748e-16,1.480635e-16,0,0,0,0,0,0
1.593121,2.762508,-10.2625,1.891618e-12,0,0,1.891618e-12,-1.110223e-16,2.220446e-16,4.692739e-17,0,0,0,0,2.285302e-16,-1.175078e-16,1.73019e-16,-52.868641,2.30692e-16,2.031838e-16,0,0,0,0,0,0
1.640411,2.762508,-10.327671,1.891618e-12,0,0,1.891618e-12,0,0,-1.806629e-17,0,0,0,0,1.806629e-17,-1.806629e-17,1.806629e-17,0,2.408839e-17,2.086116e-17,0,0,0,0,0,0
1.687701,2.762508,-10.382456,1.891618e-12,0,0,1.891618e-12,2.220446e-16,0,-2.189249e-17,0,0,0,0,2.241825e-16,-2.137906e-18,1.131602e-16,39.422482,1.508803e-16,1.501727e-16,0,0,0,0,0,0
1.734992,2.762508,-10.430941,1.891618e-12,0,0,1.891618e-12,-2.220446e-16,0,-8.199209e-18,0,0,0,0,3.023519e-19,-2.22347e-16,1.113247e-16,-42.888134,1.484329e-16,1.483322e-16,0,0,0,0,0,0
1.782282,2.762508,-10.476006,1.891618e-12,0,0,1.891618e-12,4.440892e-16,2.220446e-16,-9.3626e-18,0,0,0,0,4.444833e-16,2.216505e-16,1.114164e-16,42.589802,1.485552e-16,2.566228e-16,0,0,0,0,0,0
1.829573,2.762508,-10.518262,1.891618e-12,0,0,1.891618e-12,2.220446e-16,2.220446e-16,1.010747e-17,0,0,0,0,2.321521e-16,2.119371e-16,1.010747e-17,90,1.347662e-17,1.484891e-16,0,0,0,0,0,0
1.876863,2.762508,-10.556701,1.891618e-12,0,0,1.891618e-12,4.440892e-16,2.220446e-16,5.145779e-17,0,0,0,0,4.554346e-16,2.106992e-16,1.223677e-16,57.43364,1.631569e-16,2.631899e-16,0,0,0,0,0,0
1.924154,2.762508,-10.589737,1.891618e-12,0,0,1.891618e-12,-1.110223e-16,2.220446e-16,-2.227732e-17,0,0,0,0,2.23528e-16,-1.125057e-16,1.680169e-16,-41.190365,2.240225e-16,1.975072e-16,0,0,0,0,0,0
1.971444,2.762508,-10.617514,1.891618e-12,0,0,1.891618e-12,2.220446e-16,4.440892e-16,9.610303e-18,0,0,0,0,4.445044e-16,2.216294e-16,1.114375e-16,-47.473652,1.485833e-16,2.56635e-16,0,0,0,0,0,0
2.018735,2.762508,-10.641864,1.891618e-12,0,0,1.891618e-12,2.220446e-16,2.220446e-16,-2.366031e-17,0,0,0,0,2.457049e-16,1.983843e-16,2.366031e-17,0,3.154707e-17,1.505298e-16,0,0,0,0,0,0
2.066025,2.762508,-10.665242,1.891618e-12,0,0,1.891618e-12,0,0,-3.602915e-17,0,0,0,0,3.602915e-17,-3.602915e-17,3.602915e-17,0,4.803886e-17,4.160287e-17,0,0,0,0,0,0
2.113316,2.762508,-10.68738,1.891618e-12,0,0,1.891618e-12,0,2.220446e-16,2.588337e-17,0,0,0,0,2.250219e-16,-2.977262e-18,1.139996e-16,-51.561668,1.519994e-16,1.510168e-16,0,0,0,0,0,0
2.160606,2.762508,-10.707261,1.891618e-12,0,0,1.891618e-12,2.220446e-16,2.220446e-16,1.611635e-17,0,0,0,0,2.381609e-16,2.059283e-16,1.611635e-17,90,2.148846e-17,1.491949e-16,0,0,0,0,0,0
2.207896,2.762508,-10.724474,1.891618e-12,0,0,1.891618e-12,0,2.220446e-16,-1.029216e-17,0,0,0,0,2.225206e-16,-4.760389e-19,1.114983e-16,-42.35181,1.486645e-16,1.48506e-16,0,0,0,0,0,0
2.255187,2.762508,-10.740231,1.891618e-12,0,0,1.891618e-12,2.220446e-16,0,-1.929362e-17,0,0,0,0,2.237086e-16,-1.663967e-18,1.126863e-16,40.070755,1.502484e-16,1.496968e-16,0,0,0,0,0,0
2.302477,2.762508,-10.754203,1.891618e-12,0,0,1.891618e-12,0,-2.220446e-16,1.659399e-17,0,0,0,0,1.233264e-18,-2.232779e-16,1.122556e-16,49.250404,1.496741e-16,1.492647e-16,0,0,0,0,0,0
2.349768,2.762508,-10.765276,1.891618e-12,0,0,1.891618e-12,-1.110223e-16,0,-1.054517e-18,0,0,0,0,1.001515e-20,-1.110323e-16,5.552116e-17,-44.455856,7.402822e-17,7.402488e-17,0,0,0,0,0,0
2.397058,2.762508,-10.770303,1.891618e-12,0,0,1.891618e-12,0,-1.110223e-16,-9.258825e-19,0,0,0,0,7.72096e-21,-1.1103e-16,5.551887e-17,44.522221,7.402516e-17,7.402259e-17,0,0,0,0,0,0
2.444349,2.762508,-10.768531,1.891618e-12,0,0,1.891618e-12,2.220446e-16,-1.110223e-16,-3.404202e-17,0,0,0,0,2.254883e-16,-1.144661e-16,1.699772e-16,39.223507,2.266363e-16,1.997312e-16,0,0,0,0,0,0
2.491639,2.762508,-10.761988,1.891618e-12,0,0,1.891618e-12,0,-2.220446e-16,-4.732029e-17,0,0,0,0,9.66391e-18,-2.317085e-16,1.206862e-16,33.457584,1.60915e-16,1.577923e-16,0,0,0,0,0,0
2.53893,2.762508,-10.753963,1.891618e-12,0,0,1.891618e-12,4.440892e-16,-1.110223e-16,2.162545e-17,0,0,0,0,4.449304e-16,-1.118635e-16,2.783969e-16,47.22757,3.711959e-16,3.400967e-16,0,0,0,0,0,0
2.58622,2.762508,-10.746717,1.891618e-12,0,0,1.891618e-12,-2.220446e-16,-2.220446e-16,-1.590063e-17,0,0,0,0,-2.06144e-16,-2.379452e-16,1.590063e-17,0,2.120084e-17,1.49164e-16,0,0,0,0,0,0
2.633511,2.762508,-10.739638,1.891618e-12,0,0,1.891618e-12,0,0,-1.974972e-18,0,0,0,0,1.974972e-18,-1.974972e-18,1.974972e-18,0,2.633297e-18,2.280502e-18,0,0,0,0,0,0
2.680801,2.762508,-10.7308,1.891618e-12,0,0,1.891618e-12,2.220446e-16,-1.110223e-16,-5.939449e-18,0,0,0,0,2.221505e-16,-1.111282e-16,1.666393e-16,43.978699,2.221858e-16,1.95945e-16,0,0,0,0,0,0
2.728091,2.762508,-10.719565,1.891618e-12,0,0,1.891618e-12,-2.220446e-16,2.220446e-16,-5.949416e-18,0,0,0,0,2.221243e-16,-2.221243e-16,2.221243e-16,-44.232597,2.961657e-16,2.56487e-16,0,0,0,0,0,0
2.775382,2.762508,-10.706578,1.891618e-12,0,0,1.891618e-12,2.220446e-16,2.220446e-16,2.408183e-18,0,0,0,0,2.244528e-16,2.196364e-16,2.408183e-18,90,3.210911e-18,1.480559e-16,0,0,0,0,0,0
2.822672,2.762508,-10.692122,1.891618e-12,0,0,1.891618e-12,-1.110223e-16,0,2.24534e-17,0,0,0,0,4.36909e-18,-1.153914e-16,5.988024e-17,-56.011288,7.984032e-17,7.842454e-17,0,0,0,0,0,0
2.869963,2.762508,-10.676215,1.891618e-12,0,0,1.891618e-12,-1.110223e-16,-1.110223e-16,6.731671e-17,0,0,0,0,-4.37056e-17,-1.78339e-16,6.731671e-17,90,8.97556e-17,1.073324e-16,0,0,0,0,0,0
2.917253,2.762508,-10.657252,1.891618e-12,0,0,1.891618e-12,0,0,-3.401405e-18,0,0,0,0,3.401405e-18,-3.401405e-18,3.401405e-18,0,4.535207e-18,3.927605e-18,0,0,0,0,0,0
2.964544,2.762508,-10.634886,1.891618e-12,0,0,1.891618e-12,0,2.220446e-16,7.576316e-18,0,0,0,0,2.223028e-16,-2.582089e-19,1.112805e-16,-46.951946,1.48374e-16,1.48288e-16,0,0,0,0,0,0
3.011834,2.762508,-10.609063,1.891618e-12,0,0,1.891618e-12,-1.110223e-16,-4.440892e-16,4.150442e-17,0,0,0,0,-1.059282e-16,-4.491833e-16,1.716275e-16,51.997242,2.288367e-16,2.711336e-16,0,0,0,0,0,0
3.059125,2.762508,-10.579391,1.891618e-12,0,0,1.891618e-12,2.220446e-16,-1.110223e-16,-4.011086e-17,0,0,0,0,2.26807e-16,-1.157847e-16,1.712959e-16,38.228905,2.283945e-16,2.012277e-16,0,0,0,0,0,0
3.106415,2.762508,-10.545674,1.891618e-12,0,0,1.891618e-12,-4.440892e-16,-1.110223e-16,3.990866e-18,0,0,0,0,-1.109745e-16,-4.44137e-16,1.665813e-16,-45.686398,2.221083e-16,2.669042e-16,0,0,0,0,0,0
3.153705,2.762508,-10.507412,1.891618e-12,0,0,1.891618e-12,-2.220446e-16,4.440892e-16,-2.285203e-17,0,0,0,0,4.448722e-16,-2.228276e-16,3.338499e-16,-43.037518,4.451332e-16,3.925378e-16,0,0,0,0,0,0
3.200996,2.762508,-10.463639,1.891618e-12,0,0,1.891618e-12,2.220446e-16,-1.110223e-16,-9.593059e-18,0,0,0,0,2.223207e-16,-1.112984e-16,1.668095e-16,43.351578,2.224127e-16,1.96138e-16,0,0,0,0,0,0
3.248286,2.762508,-10.414153,1.891618e-12,0,0,1.891618e-12,0,0,3.903627e-17,0,0,0,0,3.903627e-17,-3.903627e-17,3.903627e-17,90,5.204836e-17,4.50752e-17,0,0,0,0,0,0
3.295577,2.762508,-10.359471,1.891618e-12,0,0,1.891618e-12,2.220446e-16,-4.440892e-16,9.249709e-18,0,0,0,0,2.22173e-16,-4.442176e-16,3.331953e-16,45.795387,4.442604e-16,3.917955e-16,0,0,0,0,0,0
3.342867,2.762508,-10.304303,1.891618e-12,0,0,1.891618e-12,4.440892e-16,0,4.044128e-18,0,0,0,0,4.441261e-16,-3.682506e-20,2.220814e-16,45.521709,2.961086e-16,2.960963e-16,0,0,0,0,0,0
1.451249,2.715218,-10.017129,1.891618e-12,0,0,1.891618e-12,-1.110223e-16,-1.110223e-16,-4.084438e-17,0,0,0,0,-7.017792e-17,-1.518667e-16,4.084438e-17,0,5.445917e-17,8.776418e-17,0,0,0,0,0,0
1.49854,2.715218,-10.080409,1.891618e-12,0,0,1.891618e-12,-2.220446e-16,0,-2.830853e-17,0,0,0,0,3.552234e-18,-2.255968e-16,1.145745e-16,-37.847748,1.52766e-16,1.515958e-16,0,0,0,0,0,0
1.54583,2.715218,-10.183622,1.891618e-12,0,0,1.891618e-12,0,-1.110223e-16,-1.73446e-18,0,0,0,0,2.709022e-20,-1.110494e-16,5.553824e-17,44.105179,7.405099e-17,7.404196e-17,0,0,0,0,0,0
1.593121,2.715218,-10.263266,1.891618e-12,0,0,1.891618e-12,0,2.220446e-16,-1.671146e-17,0,0,0,0,2.232953e-16,-1.250688e-18,1.12273e-16,-40.719955,1.496973e-16,1.492822e-16,0,0,0,0,0,0
1.640411,2.715218,-10.328325,1.891618e-12,0,0,1.891618e-12,2.220446e-16,0,-2.327289e-17,0,0,0,0,2.244576e-16,-2.41305e-18,1.134354e-16,39.080441,1.512471e-16,1.504492e-16,0,0,0,0,0,0
1.687701,2.715218,-10.382761,1.891618e-12,0,0,1.891618e-12,-2.220446e-16,0,8.374975e-18,0,0,0,0,3.154352e-19,-2.2236e-16,1.113377e-16,-47.156971,1.484503e-16,1.483453e-16,0,0,0,0,0,0
1.734992,2.715218,-10.430901,1.891618e-12,0,0,1.891618e-12,-2.220446e-16,2.220446e-16,-4.233545e-17,0,0,0,0,2.260445e-16,-2.260445e-16,2.260445e-16,-39.602718,3.013926e-16,2.610137e-16,0,0,0,0,0,0
1.782282,2.715218,-10.475897,1.891618e-12,0,0,1.891618e-12,2.220446e-16,2.220446e-16,4.734978e-18,0,0,0,0,2.267796e-16,2.173096e-16,4.734978e-18,90,6.313304e-18,1.481307e-16,0,0,0,0,0,0
1.829573,2.715218,-10.518401,1.891618e-12,0,0,1.891618e-12,0,2.220446e-16,1.389278e-17,0,0,0,0,2.229105e-16,-8.658598e-19,1.118882e-16,-48.566315,1.491842e-16,1.488964e-16,0,0,0,0,0,0
1.876863,2.715218,-10.557429,1.891618e-12,0,0,1.891618e-12,2.220446e-16,-1.110223e-16,5.319566e-17,0,0,0,0,2.303344e-16,-1.193121e-16,1.748232e-16,53.857502,2.330977e-16,2.052327e-16,0,0,0,0,0,0
1.924154,2.715218,-10.591256,1.891618e-12,0,0,1.891618e-12,-2.220446e-16,0,2.125877e-17,0,0,0,0,2.017013e-18,-2.240616e-16,1.130393e-16,-50.419949,1.507191e-16,1.500513e-16,0,0,0,0,0,0
1.971444,2.715218,-10.619768,1.891618e-12,0,0,1.891618e-12,0,2.220446e-16,-1.469929e-17,0,0,0,0,2.230135e-16,-9.688609e-19,1.119912e-16,-41.22897,1.493215e-16,1.489996e-16,0,0,0,0,0,0
2.018735,2.715218,-10.64477,1.891618e-12,0,0,1.891618e-12,-1.110223e-16,0,-5.546895e-17,0,0,0,0,2.296364e-17,-1.339859e-16,7.847479e-17,-22.510893,1.046331e-16,9.788057e-17,0,0,0,0,0,0
2.066025,2.715218,-10.668741,1.891618e-12,0,0,1.891618e-12,-1.110223e-16,-1.110223e-16,1.824434e-17,0,0,0,0,-9.277797e-17,-1.292666e-16,1.824434e-17,90,2.432578e-17,7.695458e-17,0,0,0,0,0,0
2.113316,2.715218,-10.691082,1.891618e-12,0,0,1.891618e-12,-2.220446e-16,0,-3.228344e-17,0,0,0,0,4.598511e-18,-2.266431e-16,1.156208e-16,-36.893223,1.541611e-16,1.526513e-16,0,0,0,0,0,0
2.160606,2.715218,-10.710541,1.891618e-12,0,0,1.891618e-12,-1.110223e-16,-2.220446e-16,9.041224e-18,0,0,0,0,-1.102908e-16,-2.227761e-16,5.624262e-17,49.625332,7.499015e-17,1.286219e-16,0,0,0,0,0,0
2.207896,2.715218,-10.726461,1.891618e-12,0,0,1.891618e-12,-1.110223e-16,-1.110223e-16,1.144465e-17,0,0,0,0,-9.957765e-17,-1.224669e-16,1.144465e-17,90,1.525954e-17,7.518538e-17,0,0,0,0,0,0
2.255187,2.715218,-10.740545,1.891618e-12,0,0,1.891618e-12,0,0,1.291257e-17,0,0,0,0,1.291257e-17,-1.291257e-17,1.291257e-17,90,1.721676e-17,1.491016e-17,0,0,0,0,0,0
2.302477,2.715218,-10.753443,1.891618e-12,0,0,1.891618e-12,0,2.220446e-16,-1.026395e-17,0,0,0,0,2.22518e-16,-4.734387e-19,1.114957e-16,-42.359024,1.48661e-16,1.485034e-16,0,0,0,0,0,0
2.349768,2.715218,-10.764499,1.891618e-12,0,0,1.891618e-12,-1.110223e-16,0,1.563333e-18,0,0,0,0,2.200932e-20,-1.110443e-16,5.553316e-17,-45.806583,7.404421e-17,7.403688e-17,0,0,0,0,0,0
2.397058,2.715218,-10.770867,1.891618e-12,0,0,1.891618e-12,-1.110223e-16,2.220446e-16,4.164413e-18,0,0,0,0,2.220967e-16,-1.110744e-16,1.665855e-16,-45.716232,2.22114e-16,1.95884e-16,0,0,0,0,0,0
2.444349,2.715218,-10.770797,1.891618e-12,0,0,1.891618e-12,2.220446e-16,-1.110223e-16,-1.983653e-17,0,0,0,0,2.232218e-16,-1.121995e-16,1.677107e-16,41.603626,2.236143e-16,1.9716e-16,0,0,0,0,0,0
2.491639,2.715218,-10.765318,1.891618e-12,0,0,1.891618e-12,2.220446e-16,2.220446e-16,3.513573e-17,0,0,0,0,2.571803e-16,1.869089e-16,3.513573e-17,90,4.684764e-17,1.534889e-16,0,0,0,0,0,0
2.53893,2.715218,-10.75737,1.891618e-12,0,0,1.891618e-12,0,2.220446e-16,-3.013026e-17,0,0,0,0,2.260605e-16,-4.015882e-18,1.150382e-16,-37.408131,1.533842e-16,1.520633e-16,0,0,0,0,0,0
2.58622,2.715218,-10.749653,1.891618e-12,0,0,1.891618e-12,2.220446e-16,-1.110223e-16,6.016356e-18,0,0,0,0,2.221532e-16,-1.111309e-16,1.666421e-16,46.034512,2.221894e-16,1.959481e-16,0,0,0,0,0,0
2.633511,2.715218,-10.742275,1.891618e-12,0,0,1.891618e-12,-1.110223e-16,0,-1.227703e-17,0,0,0,0,1.341406e-18,-1.123637e-16,5.685256e-17,-38.764515,7.580341e-17,7.536026e-17,0,0,0,0,0,0
2.680801,2.715218,-10.734051,1.891618e-12,0,0,1.891618e-12,-4.440892e-16,0,2.277471e-18,0,0,0,0,1.167949e-20,-4.441009e-16,2.220563e-16,-45.293827,2.96075e-16,2.960712e-16,0,0,0,0,0,0
2.728091,2.715218,-10.723453,1.891618e-12,0,0,1.891618e-12,2.220446e-16,4.440892e-16,1.012097e-17,0,0,0,0,4.445496e-16,2.215842e-16,1.114827e-16,-47.604389,1.486436e-16,2.566612e-16,0,0,0,0,0,0
2.775382,2.715218,-10.710844,1.891618e-12,0,0,1.891618e-12,-1.110223e-16,-1.110223e-16,2.508539e-17,0,0,0,0,-8.593692e-17,-1.361077e-16,2.508539e-17,90,3.344718e-17,7.948105e-17,0,0,0,0,0,0
2.822672,2.715218,-10.696456,1.891618e-12,0,0,1.891618e-12,0,2.220446e-16,-4.612943e-18,0,0,0,0,2.221404e-16,-9.579189e-20,1.111181e-16,-43.810371,1.481575e-16,1.481255e-16,0,0,0,0,0,0
2.869963,2.715218,-10.680787,1.891618e-12,0,0,1.891618e-12,2.220446e-16,2.220446e-16,1.669123e-17,0,0,0,0,2.387358e-16,2.053534e-16,1.669123e-17,90,2.225497e-17,1.492792e-16,0,0,0,0,0,0
2.917253,2.715218,-10.662386,1.891618e-12,0,0,1.891618e-12,-2.220446e-16,2.220446e-16,1.617798e-17,0,0,0,0,2.226332e-16,-2.226332e-16,2.226332e-16,-47.08358,2.968442e-16,2.570747e-16,0,0,0,0,0,0
2.964544,2.715218,-10.640877,1.891618e-12,0,0,1.891618e-12,4.440892e-16,0,-2.767816e-17,0,0,0,0,4.458076e-16,-1.718411e-18,2.23763e-16,41.447327,2.983507e-16,2.977795e-16,0,0,0,0,0,0
3.011834,2.715218,-10.615943,1.891618e-12,0,0,1.891618e-12,0,0,-2.870359e-17,0,0,0,0,2.870359e-17,-2.870359e-17,2.870359e-17,0,3.827145e-17,3.314405e-17,0,0,0,0,0,0
3.059125,2.715218,-10.587018,1.891618e-12,0,0,1.891618e-12,0,2.220446e-16,1.761594e-17,0,0,0,0,2.234335e-16,-1.388876e-18,1.124112e-16,-49.507988,1.498816e-16,1.494208e-16,0,0,0,0,0,0
3.106415,2.715218,-10.553761,1.891618e-12,0,0,1.891618e-12,2.220446e-16,2.220446e-16,-2.09683e-17,0,0,0,0,2.430129e-16,2.010763e-16,2.09683e-17,0,2.795774e-17,1.499968e-16,0,0,0,0,0,0
3.153705,2.715218,-10.515662,1.891618e-12,0,0,1.891618e-12,4.440892e-16,0,4.404328e-18,0,0,0,0,4.441329e-16,-4.367636e-20,2.220883e-16,45.568165,2.961177e-16,2.961032e-16,0,0,0,0,0,0
3.200996,2.715218,-10.471879,1.891618e-12,0,0,1.891618e-12,0,0,1.750129e-17,0,0,0,0,1.750129e-17,-1.750129e-17,1.750129e-17,90,2.333506e-17,2.020875e-17,0,0,0,0,0,0
3.248286,2.715218,-10.422183,1.891618e-12,0,0,1.891618e-12,2.220446e-16,-1.110223e-16,-1.409587e-18,0,0,0,0,2.220506e-16,-1.110283e-16,1.665394e-16,44.757523,2.220525e-16,1.958317e-16,0,0,0,0,0,0
3.295577,2.715218,-10.366918,1.891618e-12,0,0,1.891618e-12,-3.330669e-16,-1.110223e-16,3.315287e-17,0,0,0,0,-1.06178e-16,-3.379112e-16,1.158666e-16,-53.313194,1.544888e-16,1.995317e-16,0,0,0,0,0,0
3.342867,2.715218,-10.3111,1.891618e-12,0,0,1.891618e-12,0,-1.110223e-16,1.196061e-17,0,0,0,0,1.273918e-18,-1.122962e-16,5.678507e-17,51.07962,7.571342e-17,7.529238e-17,0,0,0,0,0,0
1.451249,2.667927,-10.02002,1.891618e-12,0,0,1.891618e-12,-1.110223e-16,-1.110223e-16,-1.971364e-17,0,0,0,0,-9.130867e-17,-1.307359e-16,1.971364e-17,0,2.628485e-17,7.743624e-17,0,0,0,0,0,0
1.49854,2.667927,-10.083683,1.891618e-12,0,0,1.891618e-12,2.220446e-16,0,1.285012e-18,0,0,0,0,2.22052e-16,-7.436342e-21,1.110297e-16,45.331566,1.480397e-16,1.480372e-16,0,0,0,0,0,0
1.54583,2.667927,-10.186669,1.891618e-12,0,0,1.891618e-12,-1.110223e-16,2.220446e-16,-5.562067e-18,0,0,0,0,2.221375e-16,-1.111152e-16,1.666263e-16,-44.043541,2.221684e-16,1.959302e-16,0,0,0,0,0,0
1.593121,2.667927,-10.266447,1.891618e-12,0,0,1.891618e-12,-3.330669e-16,-1.110223e-16,4.52435e-17,0,0,0,0,-1.021575e-16,-3.419317e-16,1.198871e-16,-56.085873,1.598495e-16,2.026739e-16,0,0,0,0,0,0
1.640411,2.667927,-10.331065,1.891618e-12,0,0,1.891618e-12,-1.110223e-16,-1.110223e-16,-7.205213e-18,0,0,0,0,-1.038171e-16,-1.182275e-16,7.205213e-18,0,9.606951e-18,7.448101e-17,0,0,0,0,0,0
1.687701,2.667927,-10.384902,1.891618e-12,0,0,1.891618e-12,2.220446e-16,2.220446e-16,2.42101e-17,0,0,0,0,2.462547e-16,1.978345e-16,2.42101e-17,90,3.228013e-17,1.506463e-16,0,0,0,0,0,0
1.734992,2.667927,-10.432546,1.891618e-12,0,0,1.891618e-12,0,-1.110223e-16,-1.139588e-17,0,0,0,0,1.157659e-18,-1.1218e-16,5.666881e-17,39.199467,7.555842e-17,7.51755e-17,0,0,0,0,0,0
1.782282,2.667927,-10.47731,1.891618e-12,0,0,1.891618e-12,0,2.220446e-16,1.907369e-17,0,0,0,0,2.236711e-16,-1.626521e-18,1.126488e-16,-49.874142,1.501984e-16,1.496592e-16,0,0,0,0,0,0
1.829573,2.667927,-10.51979,1.891618e-12,0,0,1.891618e-12,0,0,4.073711e-17,0,0,0,0,4.073711e-17,-4.073711e-17,4.073711e-17,90,5.431615e-17,4.703916e-17,0,0,0,0,0,0
1.876863,2.667927,-10.559034,1.891618e-12,0,0,1.891618e-12,-4.440892e-16,0,-3.288955e-17,0,0,0,0,2.422607e-18,-4.465118e-16,2.244672e-16,-40.787266,2.992896e-16,2.984854e-16,0,0,0,0,0,0
1.924154,2.667927,-10.593308,1.891618e-12,0,0,1.891618e-12,0,-1.110223e-16,6.029826e-17,0,0,0,0,2.64484e-17,-1.374707e-16,8.195955e-17,68.683517,1.092794e-16,1.016171e-16,0,0,0,0,0,0
1.971444,2.667927,-10.622374,1.891618e-12,0,0,1.891618e-12,0,0,-2.217939e-17,0,0,0,0,2.217939e-17,-2.217939e-17,2.217939e-17,0,2.957252e-17,2.561055e-17,0,0,0,0,0,0
2.018735,2.667927,-10.647798,1.891618e-12,0,0,1.891618e-12,-1.110223e-16,2.220446e-16,2.624911e-17,0,0,0,0,2.241006e-16,-1.130783e-16,1.685895e-16,-49.478649,2.247859e-16,1.981567e-16,0,0,0,0,0,0
2.066025,2.667927,-10.671744,1.891618e-12,0,0,1.891618e-12,-1.110223e-16,0,-3.302537e-17,0,0,0,0,9.081131e-18,-1.201034e-16,6.459228e-17,-29.625113,8.612304e-17,8.326124e-17,0,0,0,0,0,0
2.113316,2.667927,-10.693386,1.891618e-12,0,0,1.891618e-12,2.220446e-16,2.220446e-16,7.427187e-17,0,0,0,0,2.963165e-16,1.477727e-16,7.427187e-17,90,9.902916e-17,1.710786e-16,0,0,0,0,0,0
2.160606,2.667927,-10.71133,1.891618e-12,0,0,1.891618e-12,-1.110223e-16,-1.110223e-16,5.416934e-18,0,0,0,0,-1.056054e-16,-1.164392e-16,5.416934e-18,90,7.222579e-18,7.427869e-17,0,0,0,0,0,0
2.207896,2.667927,-10.725175,1.891618e-12,0,0,1.891618e-12,-2.220446e-16,4.440892e-16,-9.406992e-18,0,0,0,0,4.44222e-16,-2.221774e-16,3.331997e-16,-44.191097,4.442663e-16,3.918005e-16,0,0,0,0,0,0
2.255187,2.667927,-10.736619,1.891618e-12,0,0,1.891618e-12,-1.110223e-16,0,-2.378512e-17,0,0,0,0,4.881065e-18,-1.159034e-16,6.039222e-17,-33.403049,8.052296e-17,7.894624e-17,0,0,0,0,0,0
2.302477,2.667927,-10.747413,1.891618e-12,0,0,1.891618e-12,2.220446e-16,0,-1.287982e-17,0,0,0,0,2.227892e-16,-7.446035e-19,1.117669e-16,41.691319,1.490225e-16,1.48775e-16,0,0,0,0,0,0
2.349768,2.667927,-10.757518,1.891618e-12,0,0,1.891618e-12,0,-1.110223e-16,2.005253e-18,0,0,0,0,3.620651e-20,-1.110585e-16,5.554736e-17,46.034409,7.406314e-17,7.405107e-17,0,0,0,0,0,0
2.397058,2.667927,-10.764639,1.891618e-12,0,0,1.891618e-12,2.220446e-16,0,-2.359707e-17,0,0,0,0,2.245246e-16,-2.480003e-18,1.135023e-16,39.000359,1.513364e-16,1.505166e-16,0,0,0,0,0,0
2.444349,2.667927,-10.766336,1.891618e-12,0,0,1.891618e-12,-1.110223e-16,0,-9.35146e-18,0,0,0,0,7.821674e-19,-1.118045e-16,5.629332e-17,-40.218842,7.505776e-17,7.47984e-17,0,0,0,0,0,0
2.491639,2.667927,-10.762821,1.891618e-12,0,0,1.891618e-12,0,0,-8.997121e-18,0,0,0,0,8.997121e-18,-8.997121e-18,8.997121e-18,0,1.199616e-17,1.038898e-17,0,0,0,0,0,0
2.53893,2.667927,-10.755943,1.891618e-12,0,0,1.891618e-12,-2.220446e-16,0,-2.504164e-18,0,0,0,0,2.823775e-20,-2.220728e-16,1.110505e-16,-44.353943,1.480674e-16,1.48058e-16,0,0,0,0,0,0
2.58622,2.667927,-10.748753,1.891618e-12,0,0,1.891618e-12,-1.110223e-16,-1.110223e-16,1.844952e-17,0,0,0,0,-9.257278e-17,-1.294718e-16,1.844952e-17,90,2.459936e-17,7.701979e-17,0,0,0,0,0,0
2.633511,2.667927,-10.741696,1.891618e-12,0,0,1.891618e-12,2.220446e-16,2.220446e-16,6.455764e-18,0,0,0,0,2.285004e-16,2.155888e-16,6.455764e-18,90,8.607685e-18,1.482173e-16,0,0,0,0,0,0
2.680801,2.667927,-10.734139,1.891618e-12,0,0,1.891618e-12,2.220446e-16,2.220446e-16,4.30987e-17,0,0,0,0,2.651433e-16,1.789459e-16,4.30987e-17,90,5.746494e-17,1.561713e-16,0,0,0,0,0,0
2.728091,2.667927,-10.724153,1.891618e-12,0,0,1.891618e-12,-1.110223e-16,0,3.415017e-17,0,0,0,0,9.663399e-18,-1.206857e-16,6.517455e-17,-60.799805,8.68994e-17,8.386406e-17,0,0,0,0,0,0
2.775382,2.667927,-10.711906,1.891618e-12,0,0,1.891618e-12,2.220446e-16,2.220446e-16,4.149469e-17,0,0,0,0,2.635393e-16,1.805499e-16,4.149469e-17,90,5.532626e-17,1.55591e-16,0,0,0,0,0,0
2.822672,2.667927,-10.697842,1.891618e-12,0,0,1.891618e-12,0,0,1.058402e-18,0,0,0,0,1.058402e-18,-1.058402e-18,1.058402e-18,90,1.411203e-18,1.222137e-18,0,0,0,0,0,0
2.869963,2.667927,-10.682677,1.891618e-12,0,0,1.891618e-12,2.220446e-16,2.220446e-16,-8.965453e-18,0,0,0,0,2.310101e-16,2.130791e-16,8.965453e-18,0,1.195394e-17,1.483913e-16,0,0,0,0,0,0
2.917253,2.667927,-10.665163,1.891618e-12,0,0,1.891618e-12,0,2.220446e-16,-2.114014e-17,0,0,0,0,2.240394e-16,-1.994764e-18,1.130171e-16,-39.609585,1.506894e-16,1.500289e-16,0,0,0,0,0,0
2.964544,2.667927,-10.644703,1.891618e-12,0,0,1.891618e-12,2.220446e-16,2.220446e-16,1.5553e-17,0,0,0,0,2.375976e-16,2.064916e-16,1.5553e-17,90,2.073733e-17,1.491152e-16,0,0,0,0,0,0
3.011834,2.667927,-10.620643,1.891618e-12,0,0,1.891618e-12,-1.110223e-16,0,2.069807e-17,0,0,0,0,3.733242e-18,-1.147555e-16,5.92444e-17,-55.224319,7.899253e-17,7.777798e-17,0,0,0,0,0,0
3.059125,2.667927,-10.592629,1.891618e-12,0,0,1.891618e-12,-1.110223e-16,-1.110223e-16,8.681356e-18,0,0,0,0,-1.023409e-16,-1.197037e-16,8.681356e-18,90,1.157514e-17,7.469062e-17,0,0,0,0,0,0
3.106415,2.667927,-10.560114,1.891618e-12,0,0,1.891618e-12,0,0,-3.787945e-17,0,0,0,0,3.787945e-17,-3.787945e-17,3.787945e-17,0,5.050593e-17,4.373942e-17,0,0,0,0,0,0
3.153705,2.667927,-10.52237,1.891618e-12,0,0,1.891618e-12,2.220446e-16,0,-3.771981e-17,0,0,0,0,2.282773e-16,-6.232699e-18,1.17255e-16,35.617409,1.5634e-16,1.543044e-16,0,0,0,0,0,0
3.200996,2.667927,-10.478424,1.891618e-12,0,0,1.891618e-12,0,0,-3.04076e-19,0,0,0,0,3.04076e-19,-3.04076e-19,3.04076e-19,0,4.054346e-19,3.511167e-19,0,0,0,0,0,0
3.248286,2.667927,-10.428879,1.891618e-12,0,0,1.891618e-12,2.220446e-16,0,-2.523377e-19,0,0,0,0,2.220449e-16,-2.867633e-22,1.110226e-16,44.934887,1.480301e-16,1.4803e-16,0,0,0,0,0,0
3.295577,2.667927,-10.372977,1.891618e-12,0,0,1.891618e-12,-2.220446e-16,0,2.440021e-17,0,0,0,0,2.64969e-18,-2.246943e-16,1.13672e-16,-51.197632,1.515627e-16,1.506872e-16,0,0,0,0,0,0
3.342867,2.667927,-10.316099,1.891618e-12,0,0,1.891618e-12,-2.220446e-16,-1.110223e-16,9.944134e-17,0,0,0,0,-5.264725e-17,-2.804197e-16,1.138862e-16,-75.414215,1.518483e-16,1.721028e-16,0,0,0,0,0,0
1.451249,2.620637,-10.023914,1.891618e-12,0,0,1.891618e-12,0,0,3.883076e-17,0,0,0,0,3.883076e-17,-3.883076e-17,3.883076e-17,90,5.177435e-17,4.48379e-17,0,0,0,0,0,0
1.49854,2.620637,-10.088009,1.891618e-12,0,0,1.891618e-12,2.220446e-16,0,3.945822e-17,0,0,0,0,2.28848e-16,-6.803427e-18,1.178257e-16,54.78281,1.57101e-16,1.54883e-16,0,0,0,0,0,0
1.54583,2.620637,-10.190888,1.891618e-12,0,0,1.891618e-12,0,2.220446e-16,9.648197e-17,0,0,0,0,2.581098e-16,-3.606516e-17,1.470875e-16,-65.49585,1.961166e-16,1.852687e-16,0,0,0,0,0,0
1.593121,2.620637,-10.270947,1.891618e-12,0,0,1.891618e-12,0,0,1.106451e-17,0,0,0,0,1.106451e-17,-1.106451e-17,1.106451e-17,90,1.475268e-17,1.277619e-17,0,0,0,0,0,0
1.640411,2.620637,-10.335506,1.891618e-12,0,0,1.891618e-12,2.220446e-16,4.440892e-16,3.00612e-18,0,0,0,0,4.441299e-16,2.220039e-16,1.11063e-16,-45.775501,1.48084e-16,2.564185e-16,0,0,0,0,0,0
1.687701,2.620637,-10.389091,1.891618e-12,0,0,1.891618e-12,0,0,1.824237e-17,0,0,0,0,1.824237e-17,-1.824237e-17,1.824237e-17,90,2.432316e-17,2.106448e-17,0,0,0,0,0,0
1.734992,2.620637,-10.436395,1.891618e-12,0,0,1.891618e-12,2.220446e-16,-1.110223e-16,4.360706e-18,0,0,0,0,2.221017e-16,-1.110794e-16,1.665905e-16,45.749977,2.221207e-16,1.958897e-16,0,0,0,0,0,0
1.782282,2.620637,-10.48091,1.891618e-12,0,0,1.891618e-12,-2.220446e-16,0,-4.317246e-17,0,0,0,0,8.098699e-18,-2.301433e-16,1.19121e-16,-34.375393,1.58828e-16,1.561984e-16,0,0,0,0,0,0
1.829573,2.620637,-10.523176,1.891618e-12,0,0,1.891618e-12,4.440892e-16,-1.110223e-16,7.508578e-18,0,0,0,0,4.441907e-16,-1.111238e-16,2.776573e-16,45.774807,3.702097e-16,3.392895e-16,0,0,0,0,0,0
1.876863,2.620637,-10.562142,1.891618e-12,0,0,1.891618e-12,0,2.220446e-16,8.894514e-18,0,0,0,0,2.224003e-16,-3.557206e-19,1.11378e-16,-47.290226,1.48504e-16,1.483856e-16,0,0,0,0,0,0
1.924154,2.620637,-10.59613,1.891618e-12,0,0,1.891618e-12,-2.220446e-16,2.220446e-16,-7.125694e-18,0,0,0,0,2.221589e-16,-2.221589e-16,2.221589e-16,-44.080967,2.962119e-16,2.56527e-16,0,0,0,0,0,0
1.971444,2.620637,-10.625031,1.891618e-12,0,0,1.891618e-12,2.220446e-16,-1.110223e-16,-4.55564e-17,0,0,0,0,2.281633e-16,-1.17141e-16,1.726522e-16,37.350319,2.302029e-16,2.027673e-16,0,0,0,0,0,0
2.018735,2.620637,-10.650167,1.891618e-12,0,0,1.891618e-12,-3.330669e-16,2.220446e-16,-3.042578e-17,0,0,0,0,2.237073e-16,-3.347296e-16,2.792184e-16,-41.872093,3.722912e-16,3.245306e-16,0,0,0,0,0,0
2.066025,2.620637,-10.673479,1.891618e-12,0,0,1.891618e-12,0,2.220446e-16,-2.052456e-17,0,0,0,0,2.239258e-16,-1.881237e-18,1.129035e-16,-39.763027,1.505381e-16,1.499149e-16,0,0,0,0,0,0
2.113316,2.620637,-10.693992,1.891618e-12,0,0,1.891618e-12,-1.110223e-16,2.220446e-16,2.524382e-17,0,0,0,0,2.23947e-16,-1.129247e-16,1.684359e-16,-49.309753,2.245812e-16,1.979825e-16,0,0,0,0,0,0
2.160606,2.620637,-10.710138,1.891618e-12,0,0,1.891618e-12,2.220446e-16,2.220446e-16,-3.310443e-17,0,0,0,0,2.55149e-16,1.889402e-16,3.310443e-17,0,4.413924e-17,1.528856e-16,0,0,0,0,0,0
2.207896,2.620637,-10.722087,1.891618e-12,0,0,1.891618e-12,-1.110223e-16,-1.110223e-16,-3.944749e-18,0,0,0,0,-1.070776e-16,-1.149671e-16,3.944749e-18,0,5.259666e-18,7.41549e-17,0,0,0,0,0,0
2.255187,2.620637,-10.731389,1.891618e-12,0,0,1.891618e-12,-4.440892e-16,4.440892e-16,-2.647563e-17,0,0,0,0,4.448777e-16,-4.448777e-16,4.448777e-16,-43.294094,5.931703e-16,5.137005e-16,0,0,0,0,0,0
2.302477,2.620637,-10.740167,1.891618e-12,0,0,1.891618e-12,-2.220446e-16,0,1.559816e-17,0,0,0,0,1.090383e-18,-2.23135e-16,1.121127e-16,-48.998734,1.494836e-16,1.491214e-16,0,0,0,0,0,0
2.349768,2.620637,-10.749152,1.891618e-12,0,0,1.891618e-12,2.220446e-16,0,3.126324e-18,0,0,0,0,2.220886e-16,-4.4009e-20,1.110663e-16,45.806496,1.480884e-16,1.480737e-16,0,0,0,0,0,0
2.397058,2.620637,-10.756488,1.891618e-12,0,0,1.891618e-12,2.220446e-16,-1.110223e-16,-3.468981e-18,0,0,0,0,2.220807e-16,-1.110584e-16,1.665696e-16,44.403336,2.220928e-16,1.958659e-16,0,0,0,0,0,0
2.444349,2.620637,-10.759393,1.891618e-12,0,0,1.891618e-12,2.220446e-16,2.220446e-16,-2.17119e-17,0,0,0,0,2.437565e-16,2.003327e-16,2.17119e-17,0,2.89492e-17,1.501378e-16,0,0,0,0,0,0
2.491639,2.620637,-10.757654,1.891618e-12,0,0,1.891618e-12,2.220446e-16,0,-9.787002e-18,0,0,0,0,2.224752e-16,-4.305443e-19,1.114528e-16,42.481102,1.486038e-16,1.484605e-16,0,0,0,0,0,0
2.53893,2.620637,-10.752312,1.891618e-12,0,0,1.891618e-12,-1.110223e-16,-1.110223e-16,-1.162947e-18,0,0,0,0,-1.098594e-16,-1.121853e-16,1.162947e-18,0,1.550596e-18,7.402705e-17,0,0,0,0,0,0
2.58622,2.620637,-10.746407,1.891618e-12,0,0,1.891618e-12,-1.110223e-16,0,-2.785679e-17,0,0,0,0,6.597533e-18,-1.176198e-16,6.210868e-17,-31.675718,8.281158e-17,8.070234e-17,0,0,0,0,0,0
2.633511,2.620637,-10.74034,1.891618e-12,0,0,1.891618e-12,0,0,2.632756e-17,0,0,0,0,2.632756e-17,-2.632756e-17,2.632756e-17,90,3.510341e-17,3.040044e-17,0,0,0,0,0,0
2.680801,2.620637,-10.733627,1.891618e-12,0,0,1.891618e-12,0,-1.110223e-16,1.234889e-17,0,0,0,0,1.356969e-18,-1.123793e-16,5.686812e-17,51.270836,7.582416e-17,7.537591e-17,0,0,0,0,0,0
2.728091,2.620637,-10.724175,1.891618e-12,0,0,1.891618e-12,-2.220446e-16,0,-3.62383e-17,0,0,0,0,5.764537e-18,-2.278091e-16,1.167868e-16,-35.961514,1.557158e-16,1.538303e-16,0,0,0,0,0,0
2.775382,2.620637,-10.712243,1.891618e-12,0,0,1.891618e-12,2.220446e-16,2.220446e-16,-1.984712e-17,0,0,0,0,2.418917e-16,2.021975e-16,1.984712e-17,0,2.646283e-17,1.497932e-16,0,0,0,0,0,0
2.822672,2.620637,-10.698422,1.891618e-12,0,0,1.891618e-12,2.220446e-16,0,-4.628151e-17,0,0,0,0,2.31305e-16,-9.260405e-18,1.202827e-16,33.685184,1.603769e-16,1.57381e-16,0,0,0,0,0,0
2.869963,2.620637,-10.683495,1.891618e-12,0,0,1.891618e-12,0,2.220446e-16,-4.213017e-17,0,0,0,0,2.297695e-16,-7.724921e-18,1.187472e-16,-34.609753,1.583296e-16,1.558185e-16,0,0,0,0,0,0
2.917253,2.620637,-10.666419,1.891618e-12,0,0,1.891618e-12,0,-1.110223e-16,1.288443e-17,0,0,0,0,1.475658e-18,-1.12498e-16,5.698681e-17,51.533638,7.598242e-17,7.549533e-17,0,0,0,0,0,0
2.964544,2.620637,-10.646416,1.891618e-12,0,0,1.891618e-12,2.220446e-16,-1.110223e-16,6.05776e-18,0,0,0,0,2.221547e-16,-1.111324e-16,1.666436e-16,46.041626,2.221915e-16,1.959498e-16,0,0,0,0,0,0
3.011834,2.620637,-10.622504,1.891618e-12,0,0,1.891618e-12,4.440892e-16,2.220446e-16,-3.502517e-17,0,0,0,0,4.49483e-16,2.166508e-16,1.164161e-16,36.245312,1.552215e-16,2.595652e-16,0,0,0,0,0,0
3.059125,2.620637,-10.594766,1.891618e-12,0,0,1.891618e-12,-1.110223e-16,2.220446e-16,-3.34863e-18,0,0,0,0,2.220783e-16,-1.11056e-16,1.665671e-16,-44.42403,2.220895e-16,1.958631e-16,0,0,0,0,0,0
3.106415,2.620637,-10.562738,1.891618e-12,0,0,1.891618e-12,0,0,-4.960971e-17,0,0,0,0,4.960971e-17,-4.960971e-17,4.960971e-17,0,6.614628e-17,5.728436e-17,0,0,0,0,0,0
3.153705,2.620637,-10.525403,1.891618e-12,0,0,1.891618e-12,0,-4.440892e-16,1.748455e-17,0,0,0,0,6.873325e-19,-4.447765e-16,2.227319e-16,47.251186,2.969759e-16,2.967471e-16,0,0,0,0,0,0
3.200996,2.620637,-10.481633,1.891618e-12,0,0,1.891618e-12,-2.220446e-16,-1.110223e-16,-2.788886e-17,0,0,0,0,-1.044104e-16,-2.286565e-16,6.212308e-17,-31.662497,8.283077e-17,1.321804e-16,0,0,0,0,0,0
3.248286,2.620637,-10.432451,1.891618e-12,0,0,1.891618e-12,0,0,-1.265015e-17,0,0,0,0,1.265015e-17,-1.265015e-17,1.265015e-17,0,1.686687e-17,1.460714e-17,0,0,0,0,0,0
3.295577,2.620637,-10.376317,1.891618e-12,0,0,1.891618e-12,4.440892e-16,0,-7.591029e-18,0,0,0,0,4.442189e-16,-1.297192e-19,2.221743e-16,44.020996,2.962324e-16,2.961892e-16,0,0,0,0,0,0
3.342867,2.620637,-10.318999,1.891618e-12,0,0,1.891618e-12,2.220446e-16,-1.110223e-16,-4.660226e-17,0,0,0,0,2.284422e-16,-1.174199e-16,1.729311e-16,37.183201,2.305748e-16,2.03084e-16,0,0,0,0,0,0
1.451249,2.573347,-10.027624,1.891618e-12,0,0,1.891618e-12,-2.220446e-16,-3.330669e-16,-1.956332e-17,0,0,0,0,-2.186982e-16,-3.364133e-16,5.885755e-17,35.293228,7.847674e-17,1.971236e-16,0,0,0,0,0,0
1.49854,2.573347,-10.092219,1.891618e-12,0,0,1.891618e-12,2.220446e-16,0,2.573291e-17,0,0,0,0,2.249878e-16,-2.943193e-18,1.139655e-16,51.524834,1.51954e-16,1.509825e-16,0,0,0,0,0,0
1.54583,2.573347,-10.195056,1.891618e-12,0,0,1.891618e-12,-2.220446e-16,-1.110223e-16,-5.952799e-17,0,0,0,0,-8.513892e-17,-2.47928e-16,8.139453e-17,-21.500103,1.08526e-16,1.454626e-16,0,0,0,0,0,0
1.593121,2.573347,-10.275488,1.891618e-12,0,0,1.891618e-12,-1.110223e-16,0,2.097027e-17,0,0,0,0,3.828886e-18,-1.148512e-16,5.934004e-17,-55.34745,7.912005e-17,7.787514e-17,0,0,0,0,0,0
1.640411,2.573347,-10.340541,1.891618e-12,0,0,1.891618e-12,2.220446e-16,2.220446e-16,5.017872e-17,0,0,0,0,2.722233e-16,1.718659e-16,5.017872e-17,90,6.690497e-17,1.589654e-16,0,0,0,0,0,0
1.687701,2.573347,-10.394518,1.891618e-12,0,0,1.891618e-12,2.220446e-16,0,2.601836e-17,0,0,0,0,2.250526e-16,-3.007985e-18,1.140303e-16,51.594696,1.520404e-16,1.510477e-16,0,0,0,0,0,0
1.734992,2.573347,-10.441893,1.891618e-12,0,0,1.891618e-12,0,-1.110223e-16,-5.235867e-18,0,0,0,0,2.463794e-19,-1.112687e-16,5.575753e-17,42.305874,7.434337e-17,7.426138e-17,0,0,0,0,0,0
1.782282,2.573347,-10.486305,1.891618e-12,0,0,1.891618e-12,0,2.220446e-16,2.674307e-18,0,0,0,0,2.220768e-16,-3.22047e-20,1.110545e-16,-45.689938,1.480727e-16,1.480619e-16,0,0,0,0,0,0
1.829573,2.573347,-10.528147,1.891618e-12,0,0,1.891618e-12,-4.440892e-16,-1.110223e-16,-4.098517e-17,0,0,0,0,-1.060531e-16,-4.490584e-16,1.715027e-16,-38.086918,2.286703e-16,2.710283e-16,0,0,0,0,0,0
1.876863,2.573347,-10.566198,1.891618e-12,0,0,1.891618e-12,2.220446e-16,0,-2.688531e-17,0,0,0,0,2.252535e-16,-3.208918e-18,1.142312e-16,38.193615,1.523083e-16,1.5125e-16,0,0,0,0,0,0
1.924154,2.573347,-10.599097,1.891618e-12,0,0,1.891618e-12,0,-1.110223e-16,-8.882446e-19,0,0,0,0,7.106032e-21,-1.110294e-16,5.551826e-17,44.541637,7.402434e-17,7.402198e-17,0,0,0,0,0,0
1.971444,2.573347,-10.627227,1.891618e-12,0,0,1.891618e-12,2.220446e-16,0,1.256236e-17,0,0,0,0,2.227531e-16,-7.084654e-19,1.117308e-16,48.227829,1.489744e-16,1.487388e-16,0,0,0,0,0,0
2.018735,2.573347,-10.651693,1.891618e-12,0,0,1.891618e-12,0,0,-1.391986e-17,0,0,0,0,1.391986e-17,-1.391986e-17,1.391986e-17,0,1.855981e-17,1.607327e-17,0,0,0,0,0,0
2.066025,2.573347,-10.674433,1.891618e-12,0,0,1.891618e-12,2.220446e-16,0,3.617138e-18,0,0,0,0,2.221035e-16,-5.890805e-20,1.110812e-16,45.933025,1.481083e-16,1.480886e-16,0,0,0,0,0,0
2.113316,2.573347,-10.69393,1.891618e-12,0,0,1.891618e-12,0,-1.110223e-16,-1.174519e-17,0,0,0,0,1.228935e-18,-1.122512e-16,5.674008e-17,39.026703,7.565345e-17,7.524715e-17,0,0,0,0,0,0
2.160606,2.573347,-10.709088,1.891618e-12,0,0,1.891618e-12,0,0,1.223374e-17,0,0,0,0,1.223374e-17,-1.223374e-17,1.223374e-17,90,1.631165e-17,1.412631e-17,0,0,0,0,0,0
2.207896,2.573347,-10.720488,1.891618e-12,0,0,1.891618e-12,-1.110223e-16,-1.110223e-16,-2.024894e-18,0,0,0,0,-1.089974e-16,-1.130472e-16,2.024894e-18,0,2.699859e-18,7.405179e-17,0,0,0,0,0,0
2.255187,2.573347,-10.729173,1.891618e-12,0,0,1.891618e-12,2.220446e-16,-1.110223e-16,-5.603502e-19,0,0,0,0,2.220456e-16,-1.110232e-16,1.665344e-16,44.903606,2.220458e-16,1.95826e-16,0,0,0,0,0,0
2.302477,2.573347,-10.736979,1.891618e-12,0,0,1.891618e-12,2.220446e-16,0,-5.303534e-17,0,0,0,0,2.340617e-16,-1.201712e-17,1.230394e-16,32.233101,1.640526e-16,1.601972e-16,0,0,0,0,0,0
2.349768,2.573347,-10.745181,1.891618e-12,0,0,1.891618e-12,-1.110223e-16,-2.220446e-16,-9.497588e-18,0,0,0,0,-1.102157e-16,-2.228512e-16,5.631778e-17,40.145542,7.509037e-17,1.286657e-16,0,0,0,0,0,0
2.397058,2.573347,-10.751944,1.891618e-12,0,0,1.891618e-12,2.220446e-16,0,1.055056e-17,0,0,0,0,2.225448e-16,-5.001881e-19,1.115225e-16,47.714287,1.486967e-16,1.485302e-16,0,0,0,0,0,0
2.444349,2.573347,-10.755143,1.891618e-12,0,0,1.891618e-12,0,-1.110223e-16,1.377173e-17,0,0,0,0,1.682803e-18,-1.127051e-16,5.719395e-17,51.966583,7.625861e-17,7.570391e-17,0,0,0,0,0,0
2.491639,2.573347,-10.754322,1.891618e-12,0,0,1.891618e-12,-4.440892e-16,-1.110223e-16,2.006999e-17,0,0,0,0,-1.098173e-16,-4.452942e-16,1.677385e-16,-48.435966,2.236513e-16,2.678688e-16,0,0,0,0,0,0
2.53893,2.573347,-10.750162,1.891618e-12,0,0,1.891618e-12,-2.220446e-16,2.220446e-16,2.251765e-17,0,0,0,0,2.231834e-16,-2.231834e-16,2.231834e-16,-47.895298,2.975779e-16,2.5771e-16,0,0,0,0,0,0
2.58622,2.573347,-10.745551,1.891618e-12,0,0,1.891618e-12,2.220446e-16,0,-5.298791e-17,0,0,0,0,2.340413e-16,-1.199668e-17,1.23019e-16,32.243065,1.640253e-16,1.601762e-16,0,0,0,0,0,0
2.633511,2.573347,-10.740725,1.891618e-12,0,0,1.891618e-12,-1.110223e-16,-1.110223e-16,-3.71276e-18,0,0,0,0,-1.073095e-16,-1.147351e-16,3.71276e-18,0,4.950346e-18,7.413893e-17,0,0,0,0,0,0
2.680801,2.573347,-10.73482,1.891618e-12,0,0,1.891618e-12,2.220446e-16,0,3.233957e-17,0,0,0,0,2.266588e-16,-4.614193e-18,1.156365e-16,53.120129,1.54182e-16,1.526672e-16,0,0,0,0,0,0
2.728091,2.573347,-10.725873,1.891618e-12,0,0,1.891618e-12,0,0,3.689637e-17,0,0,0,0,3.689637e-17,-3.689637e-17,3.689637e-17,90,4.919517e-17,4.260427e-17,0,0,0,0,0,0
2.775382,2.573347,-10.714261,1.891618e-12,0,0,1.891618e-12,2.220446e-16,2.220446e-16,-1.656533e-17,0,0,0,0,2.386099e-16,2.054793e-16,1.656533e-17,0,2.208711e-17,1.492605e-16,0,0,0,0,0,0
2.822672,2.573347,-10.700514,1.891618e-12,0,0,1.891618e-12,2.220446e-16,0,-4.184717e-18,0,0,0,0,2.221234e-16,-7.883842e-20,1.111011e-16,43.920696,1.481349e-16,1.481086e-16,0,0,0,0,0,0
2.869963,2.573347,-10.685385,1.891618e-12,0,0,1.891618e-12,2.220446e-16,0,1.597087e-17,0,0,0,0,2.231874e-16,-1.142845e-18,1.121651e-16,49.093002,1.495535e-16,1.49174e-16,0,0,0,0,0,0
2.917253,2.573347,-10.667855,1.891618e-12,0,0,1.891618e-12,-2.220446e-16,0,1.177503e-17,0,0,0,0,6.226838e-19,-2.226673e-16,1.11645e-16,-48.027081,1.4886e-16,1.486529e-16,0,0,0,0,0,0
2.964544,2.573347,-10.647149,1.891618e-12,0,0,1.891618e-12,-1.110223e-16,0,2.205198e-17,0,0,0,0,4.219727e-18,-1.15242e-16,5.973088e-17,-55.832806,7.964117e-17,7.827252e-17,0,0,0,0,0,0
3.011834,2.573347,-10.622353,1.891618e-12,0,0,1.891618e-12,-2.220446e-16,0,7.617359e-18,0,0,0,0,2.610108e-19,-2.223056e-16,1.112833e-16,-46.962486,1.483778e-16,1.482908e-16,0,0,0,0,0,0
3.059125,2.573347,-10.59386,1.891618e-12,0,0,1.891618e-12,0,-1.110223e-16,4.573171e-17,0,0,0,0,1.641157e-17,-1.274339e-16,7.192272e-17,64.741348,9.589695e-17,9.09215e-17,0,0,0,0,0,0
3.106415,2.573347,-10.561579,1.891618e-12,0,0,1.891618e-12,-2.220446e-16,-1.110223e-16,-3.195224e-18,0,0,0,0,-1.109304e-16,-2.221365e-16,5.560303e-17,-43.352844,7.413738e-17,1.282506e-16,0,0,0,0,0,0
3.153705,2.573347,-10.524728,1.891618e-12,0,0,1.891618e-12,-2.220446e-16,0,5.403924e-18,0,0,0,0,1.314381e-19,-2.221761e-16,1.111537e-16,-46.393314,1.48205e-16,1.481612e-16,0,0,0,0,0,0
3.200996,2.573347,-10.481726,1.891618e-12,0,0,1.891618e-12,-2.220446e-16,-1.110223e-16,4.492699e-19,0,0,0,0,-1.110205e-16,-2.220464e-16,5.551297e-17,-45.231853,7.401729e-17,1.281986e-16,0,0,0,0,0,0
3.248286,2.573347,-10.433321,1.891618e-12,0,0,1.891618e-12,0,0,-1.885875e-17,0,0,0,0,1.885875e-17,-1.885875e-17,1.885875e-17,0,2.5145e-17,2.177621e-17,0,0,0,0,0,0
3.295577,2.573347,-10.377474,1.891618e-12,0,0,1.891618e-12,0,2.220446e-16,-2.715293e-18,0,0,0,0,2.220778e-16,-3.319925e-20,1.110555e-16,-44.299492,1.48074e-16,1.480629e-16,0,0,0,0,0,0
3.342867,2.573347,-10.319693,1.891618e-12,0,0,1.891618e-12,4.440892e-16,0,3.185301e-17,0,0,0,0,4.463623e-16,-2.273074e-18,2.243177e-16,49.081783,2.990902e-16,2.983354e-16,0,0,0,0,0,0
1.451249,2.526056,-10.030436,1.891618e-12,0,0,1.891618e-12,-2.220446e-16,-1.110223e-16,9.632786e-18,0,0,0,0,-1.101927e-16,-2.228742e-16,5.634073e-17,-49.922218,7.512098e-17,1.286791e-16,0,0,0,0,0,0
1.49854,2.526056,-10.095756,1.891618e-12,0,0,1.891618e-12,0,2.220446e-16,-4.295585e-18,0,0,0,0,2.221277e-16,-8.306957e-20,1.111054e-16,-43.892132,1.481405e-16,1.481128e-16,0,0,0,0,0,0
1.54583,2.526056,-10.19889,1.891618e-12,0,0,1.891618e-12,2.220446e-16,2.220446e-16,-1.139526e-17,0,0,0,0,2.334399e-16,2.106493e-16,1.139526e-17,0,1.519368e-17,1.486134e-16,0,0,0,0,0,0
1.593121,2.526056,-10.279689,1.891618e-12,0,0,1.891618e-12,2.220446e-16,-2.220446e-16,-1.576587e-17,0,0,0,0,2.226036e-16,-2.226036e-16,2.226036e-16,42.969318,2.968048e-16,2.570405e-16,0,0,0,0,0,0
1.640411,2.526056,-10.345325,1.891618e-12,0,0,1.891618e-12,-4.440892e-16,-1.110223e-16,-2.190831e-17,0,0,0,0,-1.095874e-16,-4.455241e-16,1.679683e-16,-41.252747,2.239578e-16,2.680608e-16,0,0,0,0,0,0
1.687701,2.526056,-10.399885,1.891618e-12,0,0,1.891618e-12,2.220446e-16,2.220446e-16,3.070908e-17,0,0,0,0,2.527537e-16,1.913355e-16,3.070908e-17,90,4.094544e-17,1.522176e-16,0,0,0,0,0,0
1.734992,2.526056,-10.447581,1.891618e-12,0,0,1.891618e-12,-2.220446e-16,-1.110223e-16,2.61789e-21,0,0,0,0,-1.110223e-16,-2.220446e-16,5.551115e-17,-45.00135,7.401487e-17,1.281975e-16,0,0,0,0,0,0
1.782282,2.526056,-10.492018,1.891618e-12,0,0,1.891618e-12,-2.220446e-16,0,5.011642e-17,0,0,0,0,1.078741e-17,-2.32832e-16,1.218097e-16,-57.147411,1.62413e-16,1.589392e-16,0,0,0,0,0,0
1.829573,2.526056,-10.533135,1.891618e-12,0,0,1.891618e-12,0,-1.110223e-16,-6.720938e-17,0,0,0,0,3.165873e-17,-1.42681e-16,8.716989e-17,19.777391,1.162265e-16,1.072427e-16,0,0,0,0,0,0
1.876863,2.526056,-10.569617,1.891618e-12,0,0,1.891618e-12,4.440892e-16,-1.110223e-16,-2.024014e-17,0,0,0,0,4.448262e-16,-1.117593e-16,2.782928e-16,42.914608,3.71057e-16,3.39983e-16,0,0,0,0,0,0
1.924154,2.526056,-10.600963,1.891618e-12,0,0,1.891618e-12,2.220446e-16,0,-2.356614e-17,0,0,0,0,2.245182e-16,-2.473576e-18,1.134959e-16,39.007996,1.513278e-16,1.505101e-16,0,0,0,0,0,0
1.971444,2.526056,-10.628163,1.891618e-12,0,0,1.891618e-12,0,-1.110223e-16,1.12918e-17,0,0,0,0,1.136821e-18,-1.121591e-16,5.664797e-17,50.748974,7.553063e-17,7.515455e-17,0,0,0,0,0,0
2.018735,2.526056,-10.652225,1.891618e-12,0,0,1.891618e-12,-2.220446e-16,2.220446e-16,-4.110943e-17,0,0,0,0,2.258181e-16,-2.258181e-16,2.258181e-16,-39.755501,3.010907e-16,2.607522e-16,0,0,0,0,0,0
2.066025,2.526056,-10.67481,1.891618e-12,0,0,1.891618e-12,2.220446e-16,2.220446e-16,1.004532e-17,0,0,0,0,2.320899e-16,2.119993e-16,1.004532e-17,90,1.339376e-17,1.484835e-16,0,0,0,0,0,0
2.113316,2.526056,-10.694042,1.891618e-12,0,0,1.891618e-12,-1.110223e-16,0,-3.962423e-18,0,0,0,0,1.412405e-19,-1.111635e-16,5.565239e-17,-42.958557,7.420319e-17,7.415615e-17,0,0,0,0,0,0
2.160606,2.526056,-10.709575,1.891618e-12,0,0,1.891618e-12,0,2.220446e-16,-1.73471e-19,0,0,0,0,2.220447e-16,-1.35523e-22,1.110224e-16,-44.955238,1.480299e-16,1.480299e-16,0,0,0,0,0,0
2.207896,2.526056,-10.721984,1.891618e-12,0,0,1.891618e-12,-1.110223e-16,-1.110223e-16,5.172262e-18,0,0,0,0,-1.0585e-16,-1.161946e-16,5.172262e-18,90,6.89635e-18,7.425544e-17,0,0,0,0,0,0
2.255187,2.526056,-10.731949,1.891618e-12,0,0,1.891618e-12,-5.551115e-16,2.220446e-16,9.696475e-18,0,0,0,0,2.221656e-16,-5.552325e-16,3.88699e-16,-45.714725,5.182654e-16,4.623583e-16,0,0,0,0,0,0
2.302477,2.526056,-10.740171,1.891618e-12,0,0,1.891618e-12,-4.440892e-16,0,-2.110092e-17,0,0,0,0,1.000358e-18,-4.450896e-16,2.23045e-16,-42.28574,2.973933e-16,2.970604e-16,0,0,0,0,0,0
2.349768,2.526056,-10.74812,1.891618e-12,0,0,1.891618e-12,-1.110223e-16,-1.110223e-16,-6.441586e-17,0,0,0,0,-4.660645e-17,-1.754382e-16,6.441586e-17,0,8.588781e-17,1.049321e-16,0,0,0,0,0,0
2.397058,2.526056,-10.753963,1.891618e-12,0,0,1.891618e-12,0,-1.110223e-16,5.412431e-17,0,0,0,0,2.201903e-17,-1.330413e-16,7.753018e-17,67.137634,1.033736e-16,9.687168e-17,0,0,0,0,0,0
2.444349,2.526056,-10.756506,1.891618e-12,0,0,1.891618e-12,-1.110223e-16,-1.110223e-16,3.26002e-17,0,0,0,0,-7.84221e-17,-1.436225e-16,3.26002e-17,90,4.346694e-17,8.303753e-17,0,0,0,0,0,0
2.491639,2.526056,-10.755621,1.891618e-12,0,0,1.891618e-12,0,2.220446e-16,-3.092295e-17,0,0,0,0,2.262706e-16,-4.226041e-18,1.152483e-16,-37.217964,1.536645e-16,1.522753e-16,0,0,0,0,0,0
2.53893,2.526056,-10.751937,1.891618e-12,0,0,1.891618e-12,2.220446e-16,-1.110223e-16,-9.588311e-18,0,0,0,0,2.223204e-16,-1.112981e-16,1.668093e-16,43.35239,2.224123e-16,1.961377e-16,0,0,0,0,0,0
2.58622,2.526056,-10.747785,1.891618e-12,0,0,1.891618e-12,2.220446e-16,-4.440892e-16,-3.325704e-17,0,0,0,0,2.237009e-16,-4.457455e-16,3.347232e-16,42.14893,4.462975e-16,3.93528e-16,0,0,0,0,0,0
2.633511,2.526056,-10.743678,1.891618e-12,0,0,1.891618e-12,-1.110223e-16,-2.220446e-16,-1.189165e-17,0,0,0,0,-1.097629e-16,-2.23304e-16,5.677058e-17,38.954395,7.569411e-17,1.289308e-16,0,0,0,0,0,0
2.680801,2.526056,-10.738211,1.891618e-12,0,0,1.891618e-12,2.220446e-16,-1.110223e-16,2.217592e-19,0,0,0,0,2.220448e-16,-1.110224e-16,1.665336e-16,45.038147,2.220448e-16,1.958251e-16,0,0,0,0,0,0
2.728091,2.526056,-10.729735,1.891618e-12,0,0,1.891618e-12,0,-4.440892e-16,-1.311619e-17,0,0,0,0,3.870499e-19,-4.444763e-16,2.224316e-16,43.309731,2.965755e-16,2.964466e-16,0,0,0,0,0,0
2.775382,2.526056,-10.718574,1.891618e-12,0,0,1.891618e-12,0,0,1.932626e-17,0,0,0,0,1.932626e-17,-1.932626e-17,1.932626e-17,90,2.576834e-17,2.231604e-17,0,0,0,0,0,0
2.822672,2.526056,-10.704675,1.891618e-12,0,0,1.891618e-12,4.440892e-16,-1.110223e-16,-4.982066e-17,0,0,0,0,4.485251e-16,-1.154582e-16,2.819917e-16,39.911949,3.759889e-16,3.440228e-16,0,0,0,0,0,0
2.869963,2.526056,-10.688777,1.891618e-12,0,0,1.891618e-12,2.220446e-16,-2.220446e-16,-3.756289e-19,0,0,0,0,2.220449e-16,-2.220449e-16,2.220449e-16,44.951538,2.960599e-16,2.563954e-16,0,0,0,0,0,0
2.917253,2.526056,-10.669891,1.891618e-12,0,0,1.891618e-12,-1.110223e-16,2.220446e-16,3.542003e-17,0,0,0,0,2.257697e-16,-1.147474e-16,1.702585e-16,-51.003662,2.270114e-16,2.000504e-16,0,0,0,0,0,0
2.964544,2.526056,-10.647468,1.891618e-12,0,0,1.891618e-12,-2.220446e-16,0,-1.613412e-17,0,0,0,0,1.166207e-18,-2.232108e-16,1.121885e-16,-40.865738,1.495847e-16,1.491975e-16,0,0,0,0,0,0
3.011834,2.526056,-10.621064,1.891618e-12,0,0,1.891618e-12,-1.110223e-16,2.220446e-16,3.129259e-17,0,0,0,0,2.249591e-16,-1.139368e-16,1.69448e-16,-50.321056,2.259306e-16,1.991307e-16,0,0,0,0,0,0
3.059125,2.526056,-10.591256,1.891618e-12,0,0,1.891618e-12,2.220446e-16,2.220446e-16,-4.326775e-18,0,0,0,0,2.263714e-16,2.177178e-16,4.326775e-18,0,5.769033e-18,1.48114e-16,0,0,0,0,0,0
3.106415,2.526056,-10.558397,1.891618e-12,0,0,1.891618e-12,-2.220446e-16,2.220446e-16,-3.667614e-17,0,0,0,0,2.250532e-16,-2.250532e-16,2.250532e-16,-40.310436,3.00071e-16,2.59869e-16,0,0,0,0,0,0
3.153705,2.526056,-10.52217,1.891618e-12,0,0,1.891618e-12,2.220446e-16,2.220446e-16,2.075912e-17,0,0,0,0,2.428037e-16,2.012855e-16,2.075912e-17,90,2.767883e-17,1.49958e-16,0,0,0,0,0,0
3.200996,2.526056,-10.48061,1.891618e-12,0,0,1.891618e-12,0,0,8.5744e-18,0,0,0,0,8.5744e-18,-8.5744e-18,8.5744e-18,90,1.143253e-17,9.900864e-18,0,0,0,0,0,0
3.248286,2.526056,-10.433122,1.891618e-12,0,0,1.891618e-12,2.220446e-16,2.220446e-16,-1.684985e-17,0,0,0,0,2.388944e-16,2.051948e-16,1.684985e-17,0,2.246647e-17,1.493029e-16,0,0,0,0,0,0
3.295577,2.526056,-10.378108,1.891618e-12,0,0,1.891618e-12,2.220446e-16,-4.440892e-16,3.554845e-17,0,0,0,0,2.239363e-16,-4.459809e-16,3.349586e-16,48.046078,4.466115e-16,3.93795e-16,0,0,0,0,0,0
3.342867,2.526056,-10.3202,1.891618e-12,0,0,1.891618e-12,-1.110223e-16,2.220446e-16,-4.1309e-17,0,0,0,0,2.270915e-16,-1.160692e-16,1.715804e-16,-38.03442,2.287738e-16,2.015506e-16,0,0,0,0,0,0
1.451249,2.478766,-10.03215,1.891618e-12,0,0,1.891618e-12,0,2.220446e-16,2.393726e-17,0,0,0,0,2.245958e-16,-2.551215e-18,1.135735e-16,-51.083576,1.514314e-16,1.505882e-16,0,0,0,0,0,0
1.49854,2.478766,-10.098411,1.891618e-12,0,0,1.891618e-12,-1.110223e-16,-1.110223e-16,-3.21852e-17,0,0,0,0,-7.88371e-17,-1.432075e-16,3.21852e-17,0,4.29136e-17,8.282139e-17,0,0,0,0,0,0
1.54583,2.478766,-10.202023,1.891618e-12,0,0,1.891618e-12,2.220446e-16,2.220446e-16,-4.591931e-17,0,0,0,0,2.679639e-16,1.761253e-16,4.591931e-17,0,6.122575e-17,1.572395e-16,0,0,0,0,0,0
1.593121,2.478766,-10.283083,1.891618e-12,0,0,1.891618e-12,-4.440892e-16,-1.110223e-16,8.952618e-18,0,0,0,0,-1.107818e-16,-4.443297e-16,1.667739e-16,-46.538593,2.223652e-16,2.670646e-16,0,0,0,0,0,0
1.640411,2.478766,-10.349342,1.891618e-12,0,0,1.891618e-12,2.220446e-16,-2.220446e-16,3.189957e-17,0,0,0,0,2.243243e-16,-2.243243e-16,2.243243e-16,49.087669,2.990991e-16,2.590274e-16,0,0,0,0,0,0
1.687701,2.478766,-10.404483,1.891618e-12,0,0,1.891618e-12,0,2.220446e-16,3.065589e-17,0,0,0,0,2.261993e-16,-4.154672e-18,1.15177e-16,-52.718048,1.535693e-16,1.522033e-16,0,0,0,0,0,0
1.734992,2.478766,-10.45255,1.891618e-12,0,0,1.891618e-12,2.220446e-16,0,1.183062e-17,0,0,0,0,2.226732e-16,-6.285609e-19,1.116509e-16,48.041264,1.488678e-16,1.486587e-16,0,0,0,0,0,0
1.782282,2.478766,-10.496859,1.891618e-12,0,0,1.891618e-12,-2.220446e-16,-1.110223e-16,3.585601e-17,0,0,0,0,-1.004491e-16,-2.326178e-16,6.608435e-17,-61.429703,8.811247e-17,1.347175e-16,0,0,0,0,0,0
1.829573,2.478766,-10.537054,1.891618e-12,0,0,1.891618e-12,2.220446e-16,-1.110223e-16,-3.945492e-18,0,0,0,0,2.220913e-16,-1.11069e-16,1.665802e-16,44.321404,2.221069e-16,1.958779e-16,0,0,0,0,0,0
1.876863,2.478766,-10.572147,1.891618e-12,0,0,1.891618e-12,0,0,-1.504131e-17,0,0,0,0,1.504131e-17,-1.504131e-17,1.504131e-17,0,2.005508e-17,1.73682e-17,0,0,0,0,0,0
1.924154,2.478766,-10.602203,1.891618e-12,0,0,1.891618e-12,0,-1.110223e-16,-8.016644e-18,0,0,0,0,5.758749e-19,-1.115982e-16,5.608703e-17,40.89122,7.47827e-17,7.459148e-17,0,0,0,0,0,0
1.971444,2.478766,-10.628715,1.891618e-12,0,0,1.891618e-12,0,0,1.90142e-17,0,0,0,0,1.90142e-17,-1.90142e-17,1.90142e-17,90,2.535227e-17,2.195571e-17,0,0,0,0,0,0
2.018735,2.478766,-10.65263,1.891618e-12,0,0,1.891618e-12,0,0,-2.23478e-17,0,0,0,0,2.23478e-17,-2.23478e-17,2.23478e-17,0,2.979707e-17,2.580502e-17,0,0,0,0,0,0
2.066025,2.478766,-10.675079,1.891618e-12,0,0,1.891618e-12,0,0,6.246581e-18,0,0,0,0,6.246581e-18,-6.246581e-18,6.246581e-18,90,8.328775e-18,7.212931e-18,0,0,0,0,0,0
2.113316,2.478766,-10.694589,1.891618e-12,0,0,1.891618e-12,0,-2.220446e-16,-1.057647e-17,0,0,0,0,5.026424e-19,-2.225472e-16,1.11525e-16,42.279087,1.486999e-16,1.485327e-16,0,0,0,0,0,0
2.160606,2.478766,-10.711316,1.891618e-12,0,0,1.891618e-12,2.220446e-16,0,1.793476e-17,0,0,0,0,2.234839e-16,-1.439278e-18,1.124616e-16,49.5882,1.499488e-16,1.494713e-16,0,0,0,0,0,0
2.207896,2.478766,-10.725504,1.891618e-12,0,0,1.891618e-12,-1.110223e-16,0,-9.325534e-18,0,0,0,0,7.778664e-19,-1.118002e-16,5.628902e-17,-40.231853,7.505202e-17,7.479408e-17,0,0,0,0,0,0
2.255187,2.478766,-10.737831,1.891618e-12,0,0,1.891618e-12,-1.110223e-16,2.220446e-16,3.253257e-17,0,0,0,0,2.251925e-16,-1.141702e-16,1.696813e-16,-50.526806,2.262418e-16,1.993955e-16,0,0,0,0,0,0
2.302477,2.478766,-10.747266,1.891618e-12,0,0,1.891618e-12,-2.220446e-16,2.220446e-16,-5.698679e-17,0,0,0,0,2.292407e-16,-2.292407e-16,2.292407e-16,-37.802975,3.056543e-16,2.647044e-16,0,0,0,0,0,0
2.349768,2.478766,-10.754928,1.891618e-12,0,0,1.891618e-12,-1.110223e-16,2.220446e-16,2.377724e-17,0,0,0,0,2.237335e-16,-1.127112e-16,1.682223e-16,-49.062817,2.242964e-16,1.977403e-16,0,0,0,0,0,0
2.397058,2.478766,-10.760169,1.891618e-12,0,0,1.891618e-12,2.220446e-16,0,-1.117087e-17,0,0,0,0,2.226052e-16,-5.605815e-19,1.115829e-16,42.127167,1.487772e-16,1.485907e-16,0,0,0,0,0,0
2.444349,2.478766,-10.762092,1.891618e-12,0,0,1.891618e-12,0,2.220446e-16,-4.135496e-17,0,0,0,0,2.294967e-16,-7.452102e-18,1.184744e-16,-34.785011,1.579659e-16,1.555414e-16,0,0,0,0,0,0
2.491639,2.478766,-10.760813,1.891618e-12,0,0,1.891618e-12,-2.220446e-16,2.220446e-16,-1.478217e-17,0,0,0,0,2.225361e-16,-2.225361e-16,2.225361e-16,-43.095634,2.967148e-16,2.569626e-16,0,0,0,0,0,0
2.53893,2.478766,-10.75699,1.891618e-12,0,0,1.891618e-12,2.220446e-16,0,-6.19624e-18,0,0,0,0,2.222174e-16,-1.72774e-19,1.111951e-16,43.402798,1.482601e-16,1.482025e-16,0,0,0,0,0,0
2.58622,2.478766,-10.752328,1.891618e-12,0,0,1.891618e-12,2.220446e-16,2.220446e-16,-1.74865e-17,0,0,0,0,2.395311e-16,2.045581e-16,1.74865e-17,0,2.331533e-17,1.494005e-16,0,0,0,0,0,0
2.633511,2.478766,-10.747787,1.891618e-12,0,0,1.891618e-12,2.220446e-16,-2.220446e-16,-4.501654e-19,0,0,0,0,2.220451e-16,-2.220451e-16,2.220451e-16,44.941921,2.960601e-16,2.563955e-16,0,0,0,0,0,0
2.680801,2.478766,-10.742379,1.891618e-12,0,0,1.891618e-12,2.220446e-16,2.220446e-16,1.264328e-17,0,0,0,0,2.346879e-16,2.094013e-16,1.264328e-17,90,1.68577e-17,1.487479e-16,0,0,0,0,0,0
2.728091,2.478766,-10.734165,1.891618e-12,0,0,1.891618e-12,-1.110223e-16,2.220446e-16,-1.518566e-17,0,0,0,0,2.227355e-16,-1.117132e-16,1.672244e-16,-42.394894,2.229659e-16,1.966084e-16,0,0,0,0,0,0
2.775382,2.478766,-10.723271,1.891618e-12,0,0,1.891618e-12,0,-1.110223e-16,2.741214e-17,0,0,0,0,6.399375e-18,-1.174217e-16,6.191052e-17,58.140385,8.254737e-17,8.049907e-17,0,0,0,0,0,0
2.822672,2.478766,-10.709025,1.891618e-12,0,0,1.891618e-12,-1.110223e-16,-1.110223e-16,1.841868e-17,0,0,0,0,-9.260362e-17,-1.29441e-16,1.841868e-17,90,2.455824e-17,7.700994e-17,0,0,0,0,0,0
2.869963,2.478766,-10.692242,1.891618e-12,0,0,1.891618e-12,2.220446e-16,2.220446e-16,5.570655e-17,0,0,0,0,2.777512e-16,1.663381e-16,5.570655e-17,90,7.427541e-17,1.614015e-16,0,0,0,0,0,0
2.917253,2.478766,-10.671852,1.891618e-12,0,0,1.891618e-12,2.220446e-16,-1.110223e-16,-3.053983e-17,0,0,0,0,2.248217e-16,-1.137994e-16,1.693106e-16,39.804123,2.257474e-16,1.989748e-16,0,0,0,0,0,0
2.964544,2.478766,-10.647752,1.891618e-12,0,0,1.891618e-12,2.220446e-16,0,-2.345448e-17,0,0,0,0,2.24495e-16,-2.450444e-18,1.134727e-16,39.035568,1.51297e-16,1.504868e-16,0,0,0,0,0,0
3.011834,2.478766,-10.61981,1.891618e-12,0,0,1.891618e-12,2.220446e-16,2.220446e-16,2.938759e-17,0,0,0,0,2.514322e-16,1.92657e-16,2.938759e-17,90,3.918346e-17,1.518694e-16,0,0,0,0,0,0
3.059125,2.478766,-10.588959,1.891618e-12,0,0,1.891618e-12,-2.220446e-16,-1.110223e-16,-2.842592e-17,0,0,0,0,-1.041674e-16,-2.288995e-16,6.236602e-17,-31.442057,8.315469e-17,1.323328e-16,0,0,0,0,0,0
3.106415,2.478766,-10.55582,1.891618e-12,0,0,1.891618e-12,2.220446e-16,0,5.495271e-18,0,0,0,0,2.221805e-16,-1.359165e-19,1.111582e-16,46.416828,1.48211e-16,1.481657e-16,0,0,0,0,0,0
3.153705,2.478766,-10.520397,1.891618e-12,0,0,1.891618e-12,-4.440892e-16,0,6.974128e-18,0,0,0,0,1.094971e-19,-4.441987e-16,2.221541e-16,-45.899498,2.962055e-16,2.96169e-16,0,0,0,0,0,0
3.200996,2.478766,-10.48068,1.891618e-12,0,0,1.891618e-12,0,2.220446e-16,-3.343148e-18,0,0,0,0,2.220949e-16,-5.03237e-20,1.110726e-16,-44.137604,1.480968e-16,1.480801e-16,0,0,0,0,0,0
3.248286,2.478766,-10.434182,1.891618e-12,0,0,1.891618e-12,0,0,2.015094e-19,0,0,0,0,2.015094e-19,-2.015094e-19,2.015094e-19,90,2.686792e-19,2.32683e-19,0,0,0,0,0,0
3.295577,2.478766,-10.38023,1.891618e-12,0,0,1.891618e-12,2.220446e-16,4.440892e-16,7.178775e-18,0,0,0,0,4.443211e-16,2.218128e-16,1.112542e-16,-46.849815,1.483389e-16,2.56529e-16,0,0,0,0,0,0
3.342867,2.478766,-10.322765,1.891618e-12,0,0,1.891618e-12,2.220446e-16,-1.110223e-16,9.376782e-18,0,0,0,0,2.223084e-16,-1.112861e-16,1.667972e-16,46.61134,2.223963e-16,1.96124e-16,0,0,0,0,0,0
1.451249,2.431475,-10.032893,1.891618e-12,0,0,1.891618e-12,0,-1.110223e-16,9.122878e-18,0,0,0,0,7.446469e-19,-1.11767e-16,5.62558e-17,49.666374,7.500773e-17,7.476075e-17,0,0,0,0,0,0
1.49854,2.431475,-10.100516,1.891618e-12,0,0,1.891618e-12,2.220446e-16,-2.220446e-16,-7.515012e-17,0,0,0,0,2.34417e-16,-2.34417e-16,2.34417e-16,35.650906,3.125561e-16,2.706815e-16,0,0,0,0,0,0
1.54583,2.431475,-10.20474,1.891618e-12,0,0,1.891618e-12,-1.110223e-16,2.220446e-16,-8.072673e-18,0,0,0,0,2.222402e-16,-1.112178e-16,1.66729e-16,-43.612385,2.223053e-16,1.960467e-16,0,0,0,0,0,0
1.593121,2.431475,-10.286201,1.891618e-12,0,0,1.891618e-12,2.220446e-16,2.220446e-16,-2.992193e-17,0,0,0,0,2.519665e-16,1.921227e-16,2.992193e-17,0,3.989591e-17,1.520084e-16,0,0,0,0,0,0
1.640411,2.431475,-10.35285,1.891618e-12,0,0,1.891618e-12,2.220446e-16,0,-2.980072e-17,0,0,0,0,2.259746e-16,-3.930012e-18,1.149523e-16,37.487389,1.532698e-16,1.519767e-16,0,0,0,0,0,0
1.687701,2.431475,-10.4083,1.891618e-12,0,0,1.891618e-12,-2.220446e-16,2.220446e-16,-1.610828e-17,0,0,0,0,2.226281e-16,-2.226281e-16,2.226281e-16,-42.925365,2.968375e-16,2.570688e-16,0,0,0,0,0,0
1.734992,2.431475,-10.456783,1.891618e-12,0,0,1.891618e-12,0,-1.110223e-16,7.715324e-18,0,0,0,0,5.335999e-19,-1.115559e-16,5.604475e-17,48.956337,7.472633e-17,7.45491e-17,0,0,0,0,0,0
1.782282,2.431475,-10.500919,1.891618e-12,0,0,1.891618e-12,0,0,-2.650238e-17,0,0,0,0,2.650238e-17,-2.650238e-17,2.650238e-17,0,3.53365e-17,3.060231e-17,0,0,0,0,0,0
1.829573,2.431475,-10.540385,1.891618e-12,0,0,1.891618e-12,2.220446e-16,-1.110223e-16,3.360699e-17,0,0,0,0,2.254018e-16,-1.143795e-16,1.698906e-16,50.70462,2.265208e-16,1.996329e-16,0,0,0,0,0,0
1.876863,2.431475,-10.574856,1.891618e-12,0,0,1.891618e-12,2.220446e-16,0,1.266026e-17,0,0,0,0,2.227641e-16,-7.195151e-19,1.117418e-16,48.252769,1.489891e-16,1.487498e-16,0,0,0,0,0,0
1.924154,2.431475,-10.604624,1.891618e-12,0,0,1.891618e-12,2.220446e-16,-1.110223e-16,3.563857e-18,0,0,0,0,2.220827e-16,-1.110604e-16,1.665716e-16,45.61298,2.220955e-16,1.958682e-16,0,0,0,0,0,0
1.971444,2.431475,-10.63117,1.891618e-12,0,0,1.891618e-12,0,-1.110223e-16,-3.241422e-18,0,0,0,0,9.455646e-20,-1.111169e-16,5.560571e-17,43.329082,7.414095e-17,7.410945e-17,0,0,0,0,0,0
2.018735,2.431475,-10.655409,1.891618e-12,0,0,1.891618e-12,2.220446e-16,-2.220446e-16,-3.837342e-17,0,0,0,0,2.25336e-16,-2.25336e-16,2.25336e-16,40.097538,3.00448e-16,2.601956e-16,0,0,0,0,0,0
2.066025,2.431475,-10.678101,1.891618e-12,0,0,1.891618e-12,-2.220446e-16,2.220446e-16,4.029581e-17,0,0,0,0,2.256714e-16,-2.256714e-16,2.256714e-16,-50.142937,3.008951e-16,2.605828e-16,0,0,0,0,0,0
2.113316,2.431475,-10.698041,1.891618e-12,0,0,1.891618e-12,2.220446e-16,0,-1.66592e-18,0,0,0,0,2.220571e-16,-1.249808e-20,1.110348e-16,44.570164,1.480464e-16,1.480422e-16,0,0,0,0,0,0
2.160606,2.431475,-10.71546,1.891618e-12,0,0,1.891618e-12,-1.110223e-16,0,-2.680447e-17,0,0,0,0,6.132725e-18,-1.17155e-16,6.164387e-17,-32.112831,8.219184e-17,8.022577e-17,0,0,0,0,0,0
2.207896,2.431475,-10.730953,1.891618e-12,0,0,1.891618e-12,2.220446e-16,2.220446e-16,1.204181e-17,0,0,0,0,2.340864e-16,2.100028e-16,1.204181e-17,90,1.605575e-17,1.486813e-16,0,0,0,0,0,0
2.255187,2.431475,-10.744694,1.891618e-12,0,0,1.891618e-12,2.220446e-16,2.220446e-16,-4.013149e-18,0,0,0,0,2.260578e-16,2.180315e-16,4.013149e-18,0,5.350866e-18,1.481023e-16,0,0,0,0,0,0
2.302477,2.431475,-10.755306,1.891618e-12,0,0,1.891618e-12,2.220446e-16,2.220446e-16,-1.538677e-17,0,0,0,0,2.374314e-16,2.066578e-16,1.538677e-17,0,2.051569e-17,1.490922e-16,0,0,0,0,0,0
2.349768,2.431475,-10.762915,1.891618e-12,0,0,1.891618e-12,2.220446e-16,0,-1.201674e-18,0,0,0,0,2.220511e-16,-6.503099e-21,1.110288e-16,44.689934,1.480384e-16,1.480362e-16,0,0,0,0,0,0
2.397058,2.431475,-10.767454,1.891618e-12,0,0,1.891618e-12,2.220446e-16,4.440892e-16,2.711865e-17,0,0,0,0,4.473533e-16,2.187805e-16,1.142864e-16,-51.863232,1.523818e-16,2.583002e-16,0,0,0,0,0,0
2.444349,2.431475,-10.768717,1.891618e-12,0,0,1.891618e-12,-4.440892e-16,0,5.583341e-17,0,0,0,0,6.912107e-18,-4.510013e-16,2.289567e-16,-52.05724,3.052756e-16,3.029979e-16,0,0,0,0,0,0
2.491639,2.431475,-10.767043,1.891618e-12,0,0,1.891618e-12,4.440892e-16,0,1.758446e-17,0,0,0,0,4.447844e-16,-6.951983e-19,2.227398e-16,47.264,2.969864e-16,2.967549e-16,0,0,0,0,0,0
2.53893,2.431475,-10.762588,1.891618e-12,0,0,1.891618e-12,0,-1.110223e-16,-9.624625e-18,0,0,0,0,8.281896e-19,-1.118505e-16,5.633934e-17,40.081867,7.511912e-17,7.484459e-17,0,0,0,0,0,0
2.58622,2.431475,-10.756865,1.891618e-12,0,0,1.891618e-12,-2.220446e-16,0,3.655187e-17,0,0,0,0,5.862218e-18,-2.279068e-16,1.168845e-16,-54.111549,1.55846e-16,1.539292e-16,0,0,0,0,0,0
2.633511,2.431475,-10.750851,1.891618e-12,0,0,1.891618e-12,0,0,2.393467e-17,0,0,0,0,2.393467e-17,-2.393467e-17,2.393467e-17,90,3.19129e-17,2.763738e-17,0,0,0,0,0,0
2.680801,2.431475,-10.744467,1.891618e-12,0,0,1.891618e-12,0,-1.110223e-16,4.223522e-18,0,0,0,0,1.604398e-19,-1.111827e-16,5.567159e-17,47.175461,7.422879e-17,7.417536e-17,0,0,0,0,0,0
2.728091,2.431475,-10.735827,1.891618e-12,0,0,1.891618e-12,2.220446e-16,2.220446e-16,-3.043339e-17,0,0,0,0,2.52478e-16,1.916112e-16,3.043339e-17,0,4.057785e-17,1.521438e-16,0,0,0,0,0,0
2.775382,2.431475,-10.724618,1.891618e-12,0,0,1.891618e-12,0,-2.220446e-16,-1.572921e-17,0,0,0,0,1.108691e-18,-2.231533e-16,1.12131e-16,40.968113,1.49508e-16,1.491398e-16,0,0,0,0,0,0
2.822672,2.431475,-10.71003,1.891618e-12,0,0,1.891618e-12,0,0,3.554371e-17,0,0,0,0,3.554371e-17,-3.554371e-17,3.554371e-17,90,4.739162e-17,4.104235e-17,0,0,0,0,0,0
2.869963,2.431475,-10.69271,1.891618e-12,0,0,1.891618e-12,-2.220446e-16,2.220446e-16,-2.265795e-17,0,0,0,0,2.231977e-16,-2.231977e-16,2.231977e-16,-42.086784,2.975969e-16,2.577265e-16,0,0,0,0,0,0
2.917253,2.431475,-10.671647,1.891618e-12,0,0,1.891618e-12,4.440892e-16,-1.110223e-16,1.169892e-17,0,0,0,0,4.443356e-16,-1.112687e-16,2.778022e-16,46.206787,3.704029e-16,3.394476e-16,0,0,0,0,0,0
2.964544,2.431475,-10.647118,1.891618e-12,0,0,1.891618e-12,0,0,-9.456861e-18,0,0,0,0,9.456861e-18,-9.456861e-18,9.456861e-18,0,1.260915e-17,1.091984e-17,0,0,0,0,0,0
3.011834,2.431475,-10.618948,1.891618e-12,0,0,1.891618e-12,2.220446e-16,0,1.269669e-17,0,0,0,0,2.227683e-16,-7.236486e-19,1.117459e-16,48.262047,1.489946e-16,1.48754e-16,0,0,0,0,0,0
3.059125,2.431475,-10.588365,1.891618e-12,0,0,1.891618e-12,2.220446e-16,0,4.861743e-17,0,0,0,0,2.32223e-16,-1.017838e-17,1.212007e-16,56.824471,1.616009e-16,1.583172e-16,0,0,0,0,0,0
3.106415,2.431475,-10.555901,1.891618e-12,0,0,1.891618e-12,-2.220446e-16,-1.110223e-16,1.428464e-17,0,0,0,0,-1.092138e-16,-2.238531e-16,5.731962e-17,-52.215397,7.642616e-17,1.292543e-16,0,0,0,0,0,0
3.153705,2.431475,-10.521554,1.891618e-12,0,0,1.891618e-12,2.220446e-16,2.220446e-16,-1.909699e-17,0,0,0,0,2.411416e-16,2.029476e-16,1.909699e-17,0,2.546266e-17,1.496632e-16,0,0,0,0,0,0
3.200996,2.431475,-10.48316,1.891618e-12,0,0,1.891618e-12,0,2.220446e-16,-7.894325e-17,0,0,0,0,2.4725e-16,-2.52054e-17,1.362277e-16,-27.292492,1.816369e-16,1.738453e-16,0,0,0,0,0,0
3.248286,2.431475,-10.437452,1.891618e-12,0,0,1.891618e-12,0,2.220446e-16,1.321714e-17,0,0,0,0,2.228286e-16,-7.839784e-19,1.118063e-16,-48.394539,1.49075e-16,1.488144e-16,0,0,0,0,0,0
3.295577,2.431475,-10.384266,1.891618e-12,0,0,1.891618e-12,0,0,-1.505569e-17,0,0,0,0,1.505569e-17,-1.505569e-17,1.505569e-17,0,2.007426e-17,1.738482e-17,0,0,0,0,0,0
3.342867,2.431475,-10.327715,1.891618e-12,0,0,1.891618e-12,2.220446e-16,0,3.605672e-17,0,0,0,0,2.277529e-16,-5.708322e-18,1.167306e-16,53.996124,1.556408e-16,1.537734e-16,0,0,0,0,0,0
1.451249,2.384185,-10.03224,1.891618e-12,0,0,1.891618e-12,-6.661338e-16,0,6.893879e-18,0,0,0,0,7.133774e-20,-6.662052e-16,3.331382e-16,-45.592876,4.441843e-16,4.441606e-16,0,0,0,0,0,0
1.49854,2.384185,-10.101612,1.891618e-12,0,0,1.891618e-12,0,-1.110223e-16,-1.028494e-17,0,0,0,0,9.44742e-19,-1.11967e-16,5.645589e-17,39.75172,7.527453e-17,7.49616e-17,0,0,0,0,0,0
1.54583,2.384185,-10.206826,1.891618e-12,0,0,1.891618e-12,-1.110223e-16,2.220446e-16,2.235997e-17,0,0,0,0,2.23539e-16,-1.125167e-16,1.680279e-16,-48.823601,2.240371e-16,1.975197e-16,0,0,0,0,0,0
1.593121,2.384185,-10.288808,1.891618e-12,0,0,1.891618e-12,-1.110223e-16,-2.220446e-16,1.568868e-17,0,0,0,0,-1.088479e-16,-2.24219e-16,5.768555e-17,52.890732,7.691407e-17,1.294712e-16,0,0,0,0,0,0
1.640411,2.384185,-10.355492,1.891618e-12,0,0,1.891618e-12,-1.110223e-16,-1.110223e-16,-1.680325e-17,0,0,0,0,-9.421905e-17,-1.278256e-16,1.680325e-17,0,2.240433e-17,7.651579e-17,0,0,0,0,0,0
1.687701,2.384185,-10.411081,1.891618e-12,0,0,1.891618e-12,0,-2.220446e-16,3.286212e-17,0,0,0,0,4.761419e-18,-2.26806e-16,1.157837e-16,53.244263,1.543783e-16,1.528159e-16,0,0,0,0,0,0
1.734992,2.384185,-10.460027,1.891618e-12,0,0,1.891618e-12,0,2.220446e-16,-1.233131e-17,0,0,0,0,2.227273e-16,-6.827232e-19,1.11705e-16,-41.831051,1.4894e-16,1.48713e-16,0,0,0,0,0,0
1.782282,2.384185,-10.50435,1.891618e-12,0,0,1.891618e-12,-2.220446e-16,-1.110223e-16,-1.971192e-17,0,0,0,0,-1.076263e-16,-2.254406e-16,5.890711e-17,-35.225063,7.854282e-17,1.302025e-16,0,0,0,0,0,0
1.829573,2.384185,-10.543735,1.891618e-12,0,0,1.891618e-12,2.220446e-16,2.220446e-16,7.782649e-18,0,0,0,0,2.298272e-16,2.14262e-16,7.782649e-18,90,1.037686e-17,1.483023e-16,0,0,0,0,0,0
1.876863,2.384185,-10.57827,1.891618e-12,0,0,1.891618e-12,0,2.220446e-16,-7.172412e-18,0,0,0,0,2.222761e-16,-2.314397e-19,1.112537e-16,-43.151817,1.483383e-16,1.482612e-16,0,0,0,0,0,0
1.924154,2.384185,-10.608759,1.891618e-12,0,0,1.891618e-12,2.220446e-16,-1.110223e-16,-2.941795e-18,0,0,0,0,2.220706e-16,-1.110483e-16,1.665594e-16,44.493992,2.220793e-16,1.958544e-16,0,0,0,0,0,0
1.971444,2.384185,-10.636365,1.891618e-12,0,0,1.891618e-12,2.220446e-16,-1.110223e-16,-6.926825e-18,0,0,0,0,2.221886e-16,-1.111663e-16,1.666774e-16,43.809101,2.222366e-16,1.959882e-16,0,0,0,0,0,0
2.018735,2.384185,-10.661557,1.891618e-12,0,0,1.891618e-12,2.220446e-16,2.220446e-16,6.104016e-18,0,0,0,0,2.281486e-16,2.159406e-16,6.104016e-18,90,8.138689e-18,1.481974e-16,0,0,0,0,0,0
2.066025,2.384185,-10.684611,1.891618e-12,0,0,1.891618e-12,2.220446e-16,2.220446e-16,-3.71969e-19,0,0,0,0,2.224166e-16,2.216726e-16,3.71969e-19,0,4.959586e-19,1.480304e-16,0,0,0,0,0,0
2.113316,2.384185,-10.704615,1.891618e-12,0,0,1.891618e-12,0,-1.110223e-16,1.500043e-17,0,0,0,0,1.99103e-18,-1.130133e-16,5.750218e-17,52.56076,7.666958e-17,7.601459e-17,0,0,0,0,0,0
2.160606,2.384185,-10.721981,1.891618e-12,0,0,1.891618e-12,-1.110223e-16,0,-2.015493e-17,0,0,0,0,3.54568e-18,-1.14568e-16,5.905683e-17,-35.022552,7.874244e-17,7.758756e-17,0,0,0,0,0,0
2.207896,2.384185,-10.737738,1.891618e-12,0,0,1.891618e-12,-1.110223e-16,-1.110223e-16,-8.251247e-18,0,0,0,0,-1.027711e-16,-1.192736e-16,8.251247e-18,0,1.100166e-17,7.462559e-17,0,0,0,0,0,0
2.255187,2.384185,-10.751364,1.891618e-12,0,0,1.891618e-12,-1.110223e-16,-1.110223e-16,2.547211e-17,0,0,0,0,-8.555019e-17,-1.364944e-16,2.547211e-17,90,3.396282e-17,7.964487e-17,0,0,0,0,0,0
2.302477,2.384185,-10.76189,1.891618e-12,0,0,1.891618e-12,-1.110223e-16,2.220446e-16,5.819427e-17,0,0,0,0,2.319197e-16,-1.208974e-16,1.764085e-16,-54.630856,2.352114e-16,2.070334e-16,0,0,0,0,0,0
2.349768,2.384185,-10.769128,1.891618e-12,0,0,1.891618e-12,-4.440892e-16,0,-2.696407e-18,0,0,0,0,1.637136e-20,-4.441056e-16,2.22061e-16,-44.65213,2.960813e-16,2.960758e-16,0,0,0,0,0,0
2.397058,2.384185,-10.773309,1.891618e-12,0,0,1.891618e-12,2.220446e-16,0,-1.726731e-17,0,0,0,0,2.233794e-16,-1.334769e-18,1.123571e-16,40.579807,1.498094e-16,1.493665e-16,0,0,0,0,0,0
2.444349,2.384185,-10.774351,1.891618e-12,0,0,1.891618e-12,4.440892e-16,-4.440892e-16,1.293291e-17,0,0,0,0,4.442775e-16,-4.442775e-16,4.442775e-16,45.834057,5.9237e-16,5.130075e-16,0,0,0,0,0,0
2.491639,2.384185,-10.772653,1.891618e-12,0,0,1.891618e-12,-2.220446e-16,2.220446e-16,-3.953642e-19,0,0,0,0,2.220449e-16,-2.220449e-16,2.220449e-16,-44.94899,2.960599e-16,2.563954e-16,0,0,0,0,0,0
2.53893,2.384185,-10.767448,1.891618e-12,0,0,1.891618e-12,0,2.220446e-16,3.071774e-17,0,0,0,0,2.262158e-16,-4.171149e-18,1.151935e-16,-52.732872,1.535913e-16,1.522199e-16,0,0,0,0,0,0
2.58622,2.384185,-10.760345,1.891618e-12,0,0,1.891618e-12,2.220446e-16,-2.220446e-16,2.000334e-17,0,0,0,0,2.229438e-16,-2.229438e-16,2.229438e-16,47.573856,2.972584e-16,2.574333e-16,0,0,0,0,0,0
2.633511,2.384185,-10.752673,1.891618e-12,0,0,1.891618e-12,2.220446e-16,0,2.350817e-17,0,0,0,0,2.245062e-16,-2.461554e-18,1.134839e-16,50.977692,1.513118e-16,1.50498e-16,0,0,0,0,0,0
2.680801,2.384185,-10.744701,1.891618e-12,0,0,1.891618e-12,-1.110223e-16,2.220446e-16,-1.080953e-17,0,0,0,0,2.223951e-16,-1.113727e-16,1.668839e-16,-43.143097,2.225119e-16,1.962223e-16,0,0,0,0,0,0
2.728091,2.384185,-10.735011,1.891618e-12,0,0,1.891618e-12,-2.220446e-16,-1.110223e-16,-1.00407e-17,0,0,0,0,-1.101215e-16,-2.229454e-16,5.641191e-17,-39.873672,7.521588e-17,1.287207e-16,0,0,0,0,0,0
2.775382,2.384185,-10.723066,1.891618e-12,0,0,1.891618e-12,0,0,3.004715e-17,0,0,0,0,3.004715e-17,-3.004715e-17,3.004715e-17,90,4.006287e-17,3.469546e-17,0,0,0,0,0,0
2.822672,2.384185,-10.707753,1.891618e-12,0,0,1.891618e-12,2.220446e-16,-1.110223e-16,4.040966e-17,0,0,0,0,2.268772e-16,-1.158549e-16,1.713661e-16,51.819656,2.284881e-16,2.013074e-16,0,0,0,0,0,0
2.869963,2.384185,-10.690071,1.891618e-12,0,0,1.891618e-12,0,2.220446e-16,9.30244e-18,0,0,0,0,2.224336e-16,-3.890391e-19,1.114113e-16,-47.394783,1.485485e-16,1.484189e-16,0,0,0,0,0,0
2.917253,2.384185,-10.669527,1.891618e-12,0,0,1.891618e-12,2.220446e-16,2.220446e-16,-1.821655e-17,0,0,0,0,2.402612e-16,2.03828e-16,1.821655e-17,0,2.428874e-17,1.495168e-16,0,0,0,0,0,0
2.964544,2.384185,-10.64606,1.891618e-12,0,0,1.891618e-12,0,-1.110223e-16,1.701932e-17,0,0,0,0,2.550411e-18,-1.135727e-16,5.806156e-17,53.522579,7.741542e-17,7.657943e-17,0,0,0,0,0,0
3.011834,2.384185,-10.619346,1.891618e-12,0,0,1.891618e-12,-1.110223e-16,-1.110223e-16,2.995184e-17,0,0,0,0,-8.107046e-17,-1.409741e-16,2.995184e-17,90,3.993579e-17,8.16967e-17,0,0,0,0,0,0
3.059125,2.384185,-10.59047,1.891618e-12,0,0,1.891618e-12,0,-2.220446e-16,5.453603e-17,0,0,0,0,1.267139e-17,-2.34716e-16,1.236937e-16,58.080524,1.649249e-16,1.608676e-16,0,0,0,0,0,0
3.106415,2.384185,-10.559458,1.891618e-12,0,0,1.891618e-12,2.220446e-16,2.220446e-16,-1.269988e-17,0,0,0,0,2.347445e-16,2.093447e-16,1.269988e-17,0,1.693318e-17,1.487543e-16,0,0,0,0,0,0
3.153705,2.384185,-10.526102,1.891618e-12,0,0,1.891618e-12,2.220446e-16,-1.110223e-16,-1.408779e-17,0,0,0,0,2.226394e-16,-1.116171e-16,1.671283e-16,42.582306,2.228377e-16,1.964994e-16,0,0,0,0,0,0
3.200996,2.384185,-10.488217,1.891618e-12,0,0,1.891618e-12,0,-1.110223e-16,3.258512e-17,0,0,0,0,8.857146e-18,-1.198794e-16,6.43683e-17,60.206493,8.58244e-17,8.302964e-17,0,0,0,0,0,0
3.248286,2.384185,-10.442611,1.891618e-12,0,0,1.891618e-12,2.220446e-16,2.220446e-16,-1.606515e-17,0,0,0,0,2.381097e-16,2.059795e-16,1.606515e-17,0,2.142019e-17,1.491875e-16,0,0,0,0,0,0
3.295577,2.384185,-10.389259,1.891618e-12,0,0,1.891618e-12,-2.220446e-16,0,4.157799e-17,0,0,0,0,7.530135e-18,-2.295747e-16,1.185524e-16,-55.265491,1.580699e-16,1.556206e-16,0,0,0,0,0,0
3.342867,2.384185,-10.332706,1.891618e-12,0,0,1.891618e-12,0,-3.330669e-16,5.377865e-17,0,0,0,0,8.468073e-18,-3.41535e-16,1.750015e-16,53.948414,2.333354e-16,2.305645e-16,0,0,0,0,0,0
1.451249,2.336894,-10.029458,1.891618e-12,0,0,1.891618e-12,2.220446e-16,2.220446e-16,5.470487e-17,0,0,0,0,2.767495e-16,1.673397e-16,5.470487e-17,90,7.293983e-17,1.60944e-16,0,0,0,0,0,0
1.49854,2.336894,-10.101098,1.891618e-12,0,0,1.891618e-12,2.220446e-16,-1.110223e-16,-3.050022e-17,0,0,0,0,2.248146e-16,-1.137923e-16,1.693034e-16,39.810715,2.257379e-16,1.989667e-16,0,0,0,0,0,0
1.54583,2.336894,-10.208196,1.891618e-12,0,0,1.891618e-12,2.220446e-16,2.220446e-16,-2.212589e-17,0,0,0,0,2.441705e-16,1.999187e-16,2.212589e-17,0,2.950119e-17,1.502183e-16,0,0,0,0,0,0
1.593121,2.336894,-10.291028,1.891618e-12,0,0,1.891618e-12,0,4.440892e-16,-2.027659e-17,0,0,0,0,4.450131e-16,-9.238836e-19,2.229685e-16,-42.391178,2.972913e-16,2.969838e-16,0,0,0,0,0,0
1.640411,2.336894,-10.357709,1.891618e-12,0,0,1.891618e-12,2.220446e-16,-1.110223e-16,-2.377713e-17,0,0,0,0,2.237335e-16,-1.127112e-16,1.682223e-16,40.937202,2.242964e-16,1.977403e-16,0,0,0,0,0,0
1.687701,2.336894,-10.413431,1.891618e-12,0,0,1.891618e-12,2.220446e-16,-1.110223e-16,-1.569599e-17,0,0,0,0,2.227827e-16,-1.117603e-16,1.672715e-16,42.307854,2.230287e-16,1.966619e-16,0,0,0,0,0,0
1.734992,2.336894,-10.463006,1.891618e-12,0,0,1.891618e-12,2.220446e-16,2.220446e-16,-1.990013e-17,0,0,0,0,2.419447e-16,2.021445e-16,1.990013e-17,0,2.653351e-17,1.498026e-16,0,0,0,0,0,0
1.782282,2.336894,-10.507671,1.891618e-12,0,0,1.891618e-12,-2.220446e-16,2.220446e-16,-2.090478e-17,0,0,0,0,2.230265e-16,-2.230265e-16,2.230265e-16,-42.310822,2.973687e-16,2.575288e-16,0,0,0,0,0,0
1.829573,2.336894,-10.546994,1.891618e-12,0,0,1.891618e-12,0,0,1.410677e-17,0,0,0,0,1.410677e-17,-1.410677e-17,1.410677e-17,90,1.880903e-17,1.62891e-17,0,0,0,0,0,0
1.876863,2.336894,-10.581928,1.891618e-12,0,0,1.891618e-12,0,2.220446e-16,4.681968e-19,0,0,0,0,2.220456e-16,-9.87222e-22,1.110233e-16,-45.120811,1.480311e-16,1.480307e-16,0,0,0,0,0,0
1.924154,2.336894,-10.613473,1.891618e-12,0,0,1.891618e-12,2.220446e-16,-1.110223e-16,3.162004e-17,0,0,0,0,2.250199e-16,-1.139976e-16,1.695088e-16,50.375446,2.260117e-16,1.991997e-16,0,0,0,0,0,0
1.971444,2.336894,-10.642483,1.891618e-12,0,0,1.891618e-12,-1.110223e-16,0,-3.92757e-17,0,0,0,0,1.248935e-17,-1.235117e-16,6.800051e-17,-27.359758,9.066734e-17,8.680423e-17,0,0,0,0,0,0
2.018735,2.336894,-10.66897,1.891618e-12,0,0,1.891618e-12,0,-2.220446e-16,-8.515746e-19,0,0,0,0,3.265869e-21,-2.220479e-16,1.110256e-16,44.780266,1.480341e-16,1.48033e-16,0,0,0,0,0,0
2.066025,2.336894,-10.692254,1.891618e-12,0,0,1.891618e-12,0,-1.110223e-16,-1.871525e-17,0,0,0,0,3.069977e-18,-1.140923e-16,5.858113e-17,35.684387,7.810817e-17,7.710522e-17,0,0,0,0,0,0
2.113316,2.336894,-10.711675,1.891618e-12,0,0,1.891618e-12,0,4.440892e-16,3.880649e-17,0,0,0,0,4.474548e-16,-3.365578e-18,2.254102e-16,-49.956699,3.005469e-16,2.994314e-16,0,0,0,0,0,0
2.160606,2.336894,-10.728099,1.891618e-12,0,0,1.891618e-12,-1.110223e-16,0,1.247654e-17,0,0,0,0,1.384825e-18,-1.124071e-16,5.689598e-17,-51.333576,7.58613e-17,7.540393e-17,0,0,0,0,0,0
2.207896,2.336894,-10.742849,1.891618e-12,0,0,1.891618e-12,2.220446e-16,0,3.089714e-18,0,0,0,0,2.220876e-16,-4.298453e-20,1.110653e-16,45.797054,1.48087e-16,1.480727e-16,0,0,0,0,0,0
2.255187,2.336894,-10.755533,1.891618e-12,0,0,1.891618e-12,-2.220446e-16,2.220446e-16,8.542977e-18,0,0,0,0,2.222089e-16,-2.222089e-16,2.222089e-16,-46.101662,2.962785e-16,2.565847e-16,0,0,0,0,0,0
2.302477,2.336894,-10.765438,1.891618e-12,0,0,1.891618e-12,0,2.220446e-16,-4.805577e-17,0,0,0,0,2.319988e-16,-9.954177e-18,1.209765e-16,-33.297363,1.61302e-16,1.580884e-16,0,0,0,0,0,0
2.349768,2.336894,-10.772261,1.891618e-12,0,0,1.891618e-12,2.220446e-16,0,-1.972585e-17,0,0,0,0,2.237834e-16,-1.738776e-18,1.127611e-16,39.962563,1.503481e-16,1.497719e-16,0,0,0,0,0,0
2.397058,2.336894,-10.776477,1.891618e-12,0,0,1.891618e-12,-1.110223e-16,2.220446e-16,-3.950748e-18,0,0,0,0,2.220915e-16,-1.110692e-16,1.665803e-16,-44.320499,2.221071e-16,1.958781e-16,0,0,0,0,0,0
2.444349,2.336894,-10.777953,1.891618e-12,0,0,1.891618e-12,0,0,-1.928719e-17,0,0,0,0,1.928719e-17,-1.928719e-17,1.928719e-17,0,2.571626e-17,2.227093e-17,0,0,0,0,0,0
2.491639,2.336894,-10.776858,1.891618e-12,0,0,1.891618e-12,0,-1.110223e-16,-8.082861e-18,0,0,0,0,5.853776e-19,-1.116077e-16,5.609653e-17,40.857754,7.479537e-17,7.460101e-17,0,0,0,0,0,0
2.53893,2.336894,-10.771931,1.891618e-12,0,0,1.891618e-12,-1.110223e-16,0,1.212977e-17,0,0,0,0,1.309789e-18,-1.123321e-16,5.682094e-17,-51.162998,7.576125e-17,7.532845e-17,0,0,0,0,0,0
2.58622,2.336894,-10.764351,1.891618e-12,0,0,1.891618e-12,0,0,-2.399212e-18,0,0,0,0,2.399212e-18,-2.399212e-18,2.399212e-18,0,3.198949e-18,2.770371e-18,0,0,0,0,0,0
2.633511,2.336894,-10.75551,1.891618e-12,0,0,1.891618e-12,-1.110223e-16,-1.110223e-16,-7.041669e-18,0,0,0,0,-1.039806e-16,-1.18064e-16,7.041669e-18,0,9.388892e-18,7.446015e-17,0,0,0,0,0,0
2.680801,2.336894,-10.745943,1.891618e-12,0,0,1.891618e-12,2.220446e-16,0,7.961756e-18,0,0,0,0,2.223297e-16,-2.851151e-19,1.113074e-16,47.050919,1.484099e-16,1.483149e-16,0,0,0,0,0,0
2.728091,2.336894,-10.734843,1.891618e-12,0,0,1.891618e-12,-2.220446e-16,2.220446e-16,2.544428e-17,0,0,0,0,2.234977e-16,-2.234977e-16,2.234977e-16,-48.268528,2.979969e-16,2.580729e-16,0,0,0,0,0,0
2.775382,2.336894,-10.721755,1.891618e-12,0,0,1.891618e-12,2.220446e-16,0,3.861008e-17,0,0,0,0,2.285667e-16,-6.522115e-18,1.175444e-16,54.588036,1.567259e-16,1.545977e-16,0,0,0,0,0,0
2.822672,2.336894,-10.705634,1.891618e-12,0,0,1.891618e-12,0,0,1.033626e-17,0,0,0,0,1.033626e-17,-1.033626e-17,1.033626e-17,90,1.378169e-17,1.193529e-17,0,0,0,0,0,0
2.869963,2.336894,-10.687712,1.891618e-12,0,0,1.891618e-12,-1.110223e-16,-1.110223e-16,-3.73344e-17,0,0,0,0,-7.368791e-17,-1.483567e-16,3.73344e-17,0,4.97792e-17,8.565441e-17,0,0,0,0,0,0
2.917253,2.336894,-10.667997,1.891618e-12,0,0,1.891618e-12,4.440892e-16,0,9.801982e-18,0,0,0,0,4.443055e-16,-2.16245e-19,2.222609e-16,46.263817,2.963478e-16,2.962757e-16,0,0,0,0,0,0
2.964544,2.336894,-10.646348,1.891618e-12,0,0,1.891618e-12,0,2.220446e-16,-1.699351e-19,0,0,0,0,2.220447e-16,-1.300546e-22,1.110224e-16,-44.95615,1.480299e-16,1.480299e-16,0,0,0,0,0,0
3.011834,2.336894,-10.622092,1.891618e-12,0,0,1.891618e-12,0,2.220446e-16,1.267672e-17,0,0,0,0,2.22766e-16,-7.213819e-19,1.117437e-16,-48.256962,1.489916e-16,1.487517e-16,0,0,0,0,0,0
3.059125,2.336894,-10.595503,1.891618e-12,0,0,1.891618e-12,-2.220446e-16,-1.110223e-16,2.475037e-17,0,0,0,0,-1.057546e-16,-2.273123e-16,6.077885e-17,-57.015163,8.103847e-17,1.313445e-16,0,0,0,0,0,0
3.106415,2.336894,-10.566016,1.891618e-12,0,0,1.891618e-12,2.220446e-16,2.220446e-16,1.508909e-17,0,0,0,0,2.371337e-16,2.069555e-16,1.508909e-17,90,2.011878e-17,1.490516e-16,0,0,0,0,0,0
3.153705,2.336894,-10.533248,1.891618e-12,0,0,1.891618e-12,0,0,-3.99435e-17,0,0,0,0,3.99435e-17,-3.99435e-17,3.99435e-17,0,5.3258e-17,4.612278e-17,0,0,0,0,0,0
3.200996,2.336894,-10.49541,1.891618e-12,0,0,1.891618e-12,0,4.440892e-16,2.974574e-18,0,0,0,0,4.441091e-16,-1.992323e-20,2.220645e-16,-45.383751,2.96086e-16,2.960794e-16,0,0,0,0,0,0
3.248286,2.336894,-10.449803,1.891618e-12,0,0,1.891618e-12,2.220446e-16,-2.220446e-16,3.168016e-17,0,0,0,0,2.242932e-16,-2.242932e-16,2.242932e-16,49.059929,2.990576e-16,2.589915e-16,0,0,0,0,0,0
3.295577,2.336894,-10.394238,1.891618e-12,0,0,1.891618e-12,0,4.440892e-16,7.30072e-19,0,0,0,0,4.440904e-16,-1.200218e-21,2.220458e-16,-45.094193,2.960611e-16,2.960607e-16,0,0,0,0,0,0
3.342867,2.336894,-10.335247,1.891618e-12,0,0,1.891618e-12,2.220446e-16,2.220446e-16,-2.234549e-17,0,0,0,0,2.443901e-16,1.996991e-16,2.234549e-17,0,2.979399e-17,1.502616e-16,0,0,0,0,0,0
1.451249,2.289604,-10.02536,1.891618e-12,0,0,1.891618e-12,0,-1.110223e-16,-2.641916e-17,0,0,0,0,5.966159e-18,-1.169885e-16,6.147731e-17,32.274525,8.196975e-17,8.005517e-17,0,0,0,0,0,0
1.49854,2.289604,-10.099427,1.891618e-12,0,0,1.891618e-12,2.220446e-16,0,6.74949e-19,0,0,0,0,2.220467e-16,-2.051623e-21,1.110244e-16,45.17416,1.480325e-16,1.480318e-16,0,0,0,0,0,0
1.54583,2.289604,-10.208736,1.891618e-12,0,0,1.891618e-12,0,0,-4.74682e-20,0,0,0,0,4.74682e-20,-4.74682e-20,4.74682e-20,0,6.329093e-20,5.481155e-20,0,0,0,0,0,0
1.593121,2.289604,-10.292555,1.891618e-12,0,0,1.891618e-12,-1.110223e-16,2.220446e-16,1.337396e-17,0,0,0,0,2.225808e-16,-1.115585e-16,1.670696e-16,-47.295727,2.227595e-16,1.964329e-16,0,0,0,0,0,0
1.640411,2.289604,-10.359828,1.891618e-12,0,0,1.891618e-12,-1.110223e-16,-1.110223e-16,2.748229e-17,0,0,0,0,-8.354001e-17,-1.385046e-16,2.748229e-17,90,3.664306e-17,8.053096e-17,0,0,0,0,0,0
1.687701,2.289604,-10.415909,1.891618e-12,0,0,1.891618e-12,-2.220446e-16,2.220446e-16,3.846239e-17,0,0,0,0,2.253512e-16,-2.253512e-16,2.253512e-16,-49.913609,3.004683e-16,2.602132e-16,0,0,0,0,0,0
1.734992,2.289604,-10.465859,1.891618e-12,0,0,1.891618e-12,0,0,-9.138993e-19,0,0,0,0,9.138993e-19,-9.138993e-19,9.138993e-19,0,1.218532e-18,1.05528e-18,0,0,0,0,0,0
1.782282,2.289604,-10.510769,1.891618e-12,0,0,1.891618e-12,-2.220446e-16,2.220446e-16,-1.382457e-17,0,0,0,0,2.224746e-16,-2.224746e-16,2.224746e-16,-43.218674,2.966327e-16,2.568915e-16,0,0,0,0,0,0
1.829573,2.289604,-10.55001,1.891618e-12,0,0,1.891618e-12,-2.220446e-16,-1.110223e-16,1.76703e-17,0,0,0,0,-1.082777e-16,-2.247892e-16,5.825571e-17,-53.828651,7.767428e-17,1.298111e-16,0,0,0,0,0,0
1.876863,2.289604,-10.58508,1.891618e-12,0,0,1.891618e-12,0,-1.110223e-16,-9.170841e-20,0,0,0,0,7.575438e-23,-1.110224e-16,5.551122e-17,44.952671,7.401497e-17,7.401494e-17,0,0,0,0,0,0
1.924154,2.289604,-10.617253,1.891618e-12,0,0,1.891618e-12,2.220446e-16,-1.110223e-16,-5.676285e-17,0,0,0,0,2.314527e-16,-1.204304e-16,1.759415e-16,35.589172,2.345887e-16,2.065029e-16,0,0,0,0,0,0
1.971444,2.289604,-10.647334,1.891618e-12,0,0,1.891618e-12,2.220446e-16,-1.110223e-16,9.197138e-18,0,0,0,0,2.222984e-16,-1.112761e-16,1.667872e-16,46.580532,2.22383e-16,1.961127e-16,0,0,0,0,0,0
2.018735,2.289604,-10.674997,1.891618e-12,0,0,1.891618e-12,0,-2.220446e-16,2.731281e-17,0,0,0,0,3.310288e-18,-2.253549e-16,1.143326e-16,51.910492,1.524435e-16,1.513521e-16,0,0,0,0,0,0
2.066025,2.289604,-10.698858,1.891618e-12,0,0,1.891618e-12,2.220446e-16,0,1.395079e-17,0,0,0,0,2.229177e-16,-8.730778e-19,1.118954e-16,48.581055,1.491938e-16,1.489037e-16,0,0,0,0,0,0
2.113316,2.289604,-10.717719,1.891618e-12,0,0,1.891618e-12,2.220446e-16,0,9.870281e-18,0,0,0,0,2.224825e-16,-4.378882e-19,1.114602e-16,47.540222,1.486136e-16,1.484678e-16,0,0,0,0,0,0
2.160606,2.289604,-10.733039,1.891618e-12,0,0,1.891618e-12,4.440892e-16,0,4.049253e-17,0,0,0,0,4.477511e-16,-3.661955e-18,2.257066e-16,50.167507,3.009421e-16,2.997289e-16,0,0,0,0,0,0
2.207896,2.289604,-10.746464,1.891618e-12,0,0,1.891618e-12,0,2.220446e-16,-8.849024e-18,0,0,0,0,2.223967e-16,-3.52097e-19,1.113744e-16,-42.721439,1.484992e-16,1.48382e-16,0,0,0,0,0,0
2.255187,2.289604,-10.757952,1.891618e-12,0,0,1.891618e-12,-2.220446e-16,0,-3.003867e-18,0,0,0,0,4.062953e-20,-2.220852e-16,1.110629e-16,-44.225079,1.480839e-16,1.480704e-16,0,0,0,0,0,0
2.302477,2.289604,-10.767092,1.891618e-12,0,0,1.891618e-12,2.220446e-16,-2.220446e-16,-4.798198e-18,0,0,0,0,2.220964e-16,-2.220964e-16,2.220964e-16,44.381039,2.961286e-16,2.564549e-16,0,0,0,0,0,0
2.349768,2.289604,-10.773589,1.891618e-12,0,0,1.891618e-12,-1.110223e-16,0,1.524686e-17,0,0,0,0,2.055806e-18,-1.130781e-16,5.756696e-17,-52.67915,7.675594e-17,7.607994e-17,0,0,0,0,0,0
2.397058,2.289604,-10.777968,1.891618e-12,0,0,1.891618e-12,2.220446e-16,-1.110223e-16,-1.71414e-17,0,0,0,0,2.229245e-16,-1.119022e-16,1.674133e-16,42.0616,2.232177e-16,1.968227e-16,0,0,0,0,0,0
2.444349,2.289604,-10.780429,1.891618e-12,0,0,1.891618e-12,-1.110223e-16,2.220446e-16,4.45781e-17,0,0,0,0,2.279078e-16,-1.168855e-16,1.723966e-16,-52.49287,2.298622e-16,2.024772e-16,0,0,0,0,0,0
2.491639,2.289604,-10.780541,1.891618e-12,0,0,1.891618e-12,-1.110223e-16,0,-1.830602e-17,0,0,0,0,2.940523e-18,-1.139628e-16,5.845167e-17,-35.874447,7.793557e-17,7.697412e-17,0,0,0,0,0,0
2.53893,2.289604,-10.776873,1.891618e-12,0,0,1.891618e-12,-2.220446e-16,-1.110223e-16,2.007254e-17,0,0,0,0,-1.075047e-16,-2.255622e-16,5.902876e-17,-54.939861,7.870502e-17,1.302759e-16,0,0,0,0,0,0
2.58622,2.289604,-10.769928,1.891618e-12,0,0,1.891618e-12,0,0,6.958962e-17,0,0,0,0,6.958962e-17,-6.958962e-17,6.958962e-17,90,9.278616e-17,8.035517e-17,0,0,0,0,0,0
2.633511,2.289604,-10.76069,1.891618e-12,0,0,1.891618e-12,2.220446e-16,2.220446e-16,-1.719e-17,0,0,0,0,2.392346e-16,2.048546e-16,1.719e-17,0,2.292001e-17,1.493546e-16,0,0,0,0,0,0
2.680801,2.289604,-10.750058,1.891618e-12,0,0,1.891618e-12,-1.110223e-16,-1.110223e-16,-2.766761e-17,0,0,0,0,-8.335469e-17,-1.386899e-16,2.766761e-17,0,3.689015e-17,8.061553e-17,0,0,0,0,0,0
2.728091,2.289604,-10.737788,1.891618e-12,0,0,1.891618e-12,0,-2.220446e-16,3.427121e-17,0,0,0,0,5.16921e-18,-2.272138e-16,1.161915e-16,53.577404,1.54922e-16,1.53228e-16,0,0,0,0,0,0
2.775382,2.289604,-10.723583,1.891618e-12,0,0,1.891618e-12,-2.220446e-16,2.220446e-16,-2.822643e-17,0,0,0,0,2.238315e-16,-2.238315e-16,2.238315e-16,-41.377693,2.98442e-16,2.584583e-16,0,0,0,0,0,0
2.822672,2.289604,-10.706737,1.891618e-12,0,0,1.891618e-12,2.220446e-16,2.220446e-16,1.30499e-18,0,0,0,0,2.233496e-16,2.207396e-16,1.30499e-18,90,1.739987e-18,1.480374e-16,0,0,0,0,0,0
2.869963,2.289604,-10.688583,1.891618e-12,0,0,1.891618e-12,-1.110223e-16,-2.220446e-16,7.527054e-18,0,0,0,0,-1.105143e-16,-2.225526e-16,5.601915e-17,48.860973,7.469219e-17,1.284918e-16,0,0,0,0,0,0
2.917253,2.289604,-10.669442,1.891618e-12,0,0,1.891618e-12,2.220446e-16,2.220446e-16,-6.109637e-18,0,0,0,0,2.281543e-16,2.15935e-16,6.109637e-18,0,8.146182e-18,1.481977e-16,0,0,0,0,0,0
2.964544,2.289604,-10.649402,1.891618e-12,0,0,1.891618e-12,2.220446e-16,2.220446e-16,5.069354e-18,0,0,0,0,2.27114e-16,2.169752e-16,5.069354e-18,90,6.759139e-18,1.481454e-16,0,0,0,0,0,0
3.011834,2.289604,-10.627415,1.891618e-12,0,0,1.891618e-12,0,0,-8.317235e-18,0,0,0,0,8.317235e-18,-8.317235e-18,8.317235e-18,0,1.108965e-17,9.603916e-18,0,0,0,0,0,0
3.059125,2.289604,-10.602778,1.891618e-12,0,0,1.891618e-12,-1.110223e-16,0,5.431238e-17,0,0,0,0,2.215044e-17,-1.331727e-16,7.766159e-17,-67.187309,1.035488e-16,9.701193e-17,0,0,0,0,0,0
3.106415,2.289604,-10.574316,1.891618e-12,0,0,1.891618e-12,2.220446e-16,2.220446e-16,-4.934944e-18,0,0,0,0,2.269796e-16,2.171097e-16,4.934944e-18,0,6.579925e-18,1.481394e-16,0,0,0,0,0,0
3.153705,2.289604,-10.541611,1.891618e-12,0,0,1.891618e-12,0,-2.220446e-16,1.317928e-17,0,0,0,0,7.795094e-19,-2.228241e-16,1.118018e-16,48.384907,1.490691e-16,1.488099e-16,0,0,0,0,0,0
3.200996,2.289604,-10.502747,1.891618e-12,0,0,1.891618e-12,2.220446e-16,0,-1.059034e-17,0,0,0,0,2.225486e-16,-5.039587e-19,1.115263e-16,42.275543,1.487017e-16,1.48534e-16,0,0,0,0,0,0
3.248286,2.289604,-10.456265,1.891618e-12,0,0,1.891618e-12,4.440892e-16,2.220446e-16,1.884381e-17,0,0,0,0,4.45677e-16,2.204568e-16,1.126101e-16,49.816505,1.501468e-16,2.573166e-16,0,0,0,0,0,0
3.295577,2.289604,-10.398408,1.891618e-12,0,0,1.891618e-12,-1.110223e-16,-1.110223e-16,-1.530793e-18,0,0,0,0,-1.094915e-16,-1.125531e-16,1.530793e-18,0,2.041057e-18,7.403597e-17,0,0,0,0,0,0
3.342867,2.289604,-10.336708,1.891618e-12,0,0,1.891618e-12,-2.220446e-16,0,-3.442653e-17,0,0,0,0,5.215115e-18,-2.272597e-16,1.162374e-16,-36.386021,1.549832e-16,1.532744e-16,0,0,0,0,0,0
1.451249,2.242313,-10.022185,1.891618e-12,0,0,1.891618e-12,4.440892e-16,2.220446e-16,-5.986149e-17,0,0,0,0,4.591992e-16,2.069346e-16,1.261323e-16,30.833572,1.681764e-16,2.65549e-16,0,0,0,0,0,0
1.49854,2.242313,-10.098549,1.891618e-12,0,0,1.891618e-12,-2.220446e-16,2.220446e-16,1.005252e-17,0,0,0,0,2.22272e-16,-2.22272e-16,2.22272e-16,-46.296078,2.963627e-16,2.566577e-16,0,0,0,0,0,0
1.54583,2.242313,-10.209895,1.891618e-12,0,0,1.891618e-12,2.220446e-16,0,1.449453e-17,0,0,0,0,2.229868e-16,-9.421699e-19,1.119645e-16,48.719093,1.49286e-16,1.489729e-16,0,0,0,0,0,0
1.593121,2.242313,-10.294344,1.891618e-12,0,0,1.891618e-12,0,2.220446e-16,-4.691115e-17,0,0,0,0,2.315487e-16,-9.504077e-18,1.205264e-16,-33.547043,1.607018e-16,1.576294e-16,0,0,0,0,0,0
1.640411,2.242313,-10.362214,1.891618e-12,0,0,1.891618e-12,2.220446e-16,0,-1.588753e-17,0,0,0,0,2.231756e-16,-1.131009e-18,1.121533e-16,40.92807,1.495378e-16,1.491622e-16,0,0,0,0,0,0
1.687701,2.242313,-10.418489,1.891618e-12,0,0,1.891618e-12,-2.220446e-16,-1.110223e-16,-3.885858e-17,0,0,0,0,-9.877301e-17,-2.342939e-16,6.776044e-17,-27.503723,9.034725e-17,1.358231e-16,0,0,0,0,0,0
1.734992,2.242313,-10.468322,1.891618e-12,0,0,1.891618e-12,4.440892e-16,0,2.526334e-17,0,0,0,0,4.455218e-16,-1.432559e-18,2.234772e-16,48.245483,2.979695e-16,2.974932e-16,0,0,0,0,0,0
1.782282,2.242313,-10.512738,1.891618e-12,0,0,1.891618e-12,-2.220446e-16,2.220446e-16,2.787419e-17,0,0,0,0,2.237873e-16,-2.237873e-16,2.237873e-16,-48.577576,2.983831e-16,2.584074e-16,0,0,0,0,0,0
1.829573,2.242313,-10.551437,1.891618e-12,0,0,1.891618e-12,-2.220446e-16,0,-2.546583e-17,0,0,0,0,2.883186e-18,-2.249278e-16,1.139055e-16,-38.540604,1.51874e-16,1.509221e-16,0,0,0,0,0,0
1.876863,2.242313,-10.586098,1.891618e-12,0,0,1.891618e-12,0,0,5.421834e-17,0,0,0,0,5.421834e-17,-5.421834e-17,5.421834e-17,90,7.229113e-17,6.260595e-17,0,0,0,0,0,0
1.924154,2.242313,-10.618327,1.891618e-12,0,0,1.891618e-12,-2.220446e-16,2.220446e-16,9.330339e-19,0,0,0,0,2.220466e-16,-2.220466e-16,2.220466e-16,-45.120377,2.960621e-16,2.563973e-16,0,0,0,0,0,0
1.971444,2.242313,-10.649057,1.891618e-12,0,0,1.891618e-12,2.220446e-16,-2.220446e-16,-2.922233e-17,0,0,0,0,2.239593e-16,-2.239593e-16,2.239593e-16,41.25132,2.986124e-16,2.586059e-16,0,0,0,0,0,0
2.018735,2.242313,-10.677543,1.891618e-12,0,0,1.891618e-12,0,2.220446e-16,4.476957e-18,0,0,0,0,2.221348e-16,-9.022965e-20,1.111125e-16,-46.154594,1.4815e-16,1.4812e-16,0,0,0,0,0,0
2.066025,2.242313,-10.701889,1.891618e-12,0,0,1.891618e-12,2.220446e-16,2.220446e-16,-3.224821e-17,0,0,0,0,2.542928e-16,1.897964e-16,3.224821e-17,0,4.299761e-17,1.526414e-16,0,0,0,0,0,0
2.113316,2.242313,-10.721094,1.891618e-12,0,0,1.891618e-12,0,0,1.382284e-17,0,0,0,0,1.382284e-17,-1.382284e-17,1.382284e-17,90,1.843045e-17,1.596124e-17,0,0,0,0,0,0
2.160606,2.242313,-10.736214,1.891618e-12,0,0,1.891618e-12,0,-1.110223e-16,-9.355994e-18,0,0,0,0,7.829207e-19,-1.118052e-16,5.629407e-17,40.216564,7.505877e-17,7.479916e-17,0,0,0,0,0,0
2.207896,2.242313,-10.748767,1.891618e-12,0,0,1.891618e-12,-3.330669e-16,0,-2.583229e-17,0,0,0,0,1.991615e-18,-3.350585e-16,1.685251e-16,-40.591339,2.247001e-16,2.240392e-16,0,0,0,0,0,0
2.255187,2.242313,-10.759494,1.891618e-12,0,0,1.891618e-12,0,2.220446e-16,-3.787599e-17,0,0,0,0,2.283276e-16,-6.283035e-18,1.173053e-16,-35.581295,1.564071e-16,1.543554e-16,0,0,0,0,0,0
2.302477,2.242313,-10.767978,1.891618e-12,0,0,1.891618e-12,-2.220446e-16,4.440892e-16,-2.960812e-18,0,0,0,0,4.441024e-16,-2.220578e-16,3.330801e-16,-44.745338,4.441067e-16,3.916648e-16,0,0,0,0,0,0
2.349768,2.242313,-10.774179,1.891618e-12,0,0,1.891618e-12,4.440892e-16,-2.220446e-16,-1.557824e-17,0,0,0,0,4.444533e-16,-2.224087e-16,3.33431e-16,43.661053,4.445747e-16,3.920628e-16,0,0,0,0,0,0
2.397058,2.242313,-10.77885,1.891618e-12,0,0,1.891618e-12,-2.220446e-16,2.220446e-16,5.596558e-18,0,0,0,0,2.221151e-16,-2.221151e-16,2.221151e-16,-45.721909,2.961535e-16,2.564764e-16,0,0,0,0,0,0
2.444349,2.242313,-10.78235,1.891618e-12,0,0,1.891618e-12,2.220446e-16,-2.220446e-16,-1.505972e-17,0,0,0,0,2.225547e-16,-2.225547e-16,2.225547e-16,43.059986,2.967396e-16,2.569841e-16,0,0,0,0,0,0
2.491639,2.242313,-10.783869,1.891618e-12,0,0,1.891618e-12,0,0,-6.748603e-18,0,0,0,0,6.748603e-18,-6.748603e-18,6.748603e-18,0,8.998137e-18,7.792615e-18,0,0,0,0,0,0
2.53893,2.242313,-10.782072,1.891618e-12,0,0,1.891618e-12,0,2.220446e-16,2.692886e-17,0,0,0,0,2.252638e-16,-3.219176e-18,1.142415e-16,-51.816998,1.52322e-16,1.512603e-16,0,0,0,0,0,0
2.58622,2.242313,-10.776449,1.891618e-12,0,0,1.891618e-12,-2.220446e-16,-2.220446e-16,-1.014568e-17,0,0,0,0,-2.118989e-16,-2.321903e-16,1.014568e-17,0,1.352758e-17,1.484926e-16,0,0,0,0,0,0
2.633511,2.242313,-10.767647,1.891618e-12,0,0,1.891618e-12,-1.110223e-16,0,2.455639e-17,0,0,0,0,5.188966e-18,-1.162113e-16,6.070011e-17,-56.931549,8.093349e-17,7.926047e-17,0,0,0,0,0,0
2.680801,2.242313,-10.756716,1.891618e-12,0,0,1.891618e-12,-1.110223e-16,0,4.500306e-17,0,0,0,0,1.595047e-17,-1.269728e-16,7.146162e-17,-64.515892,9.528216e-17,9.043543e-17,0,0,0,0,0,0
2.728091,2.242313,-10.743923,1.891618e-12,0,0,1.891618e-12,-2.220446e-16,2.220446e-16,-9.99232e-18,0,0,0,0,2.222693e-16,-2.222693e-16,2.222693e-16,-43.711674,2.963591e-16,2.566545e-16,0,0,0,0,0,0
2.775382,2.242313,-10.728969,1.891618e-12,0,0,1.891618e-12,-1.110223e-16,4.440892e-16,4.751014e-17,0,0,0,0,4.481261e-16,-1.150592e-16,2.815926e-16,-49.856686,3.754569e-16,3.435867e-16,0,0,0,0,0,0
2.822672,2.242313,-10.711516,1.891618e-12,0,0,1.891618e-12,0,2.220446e-16,8.115707e-18,0,0,0,0,2.223408e-16,-2.96233e-19,1.113185e-16,-47.090435,1.484247e-16,1.483261e-16,0,0,0,0,0,0
2.869963,2.242313,-10.692869,1.891618e-12,0,0,1.891618e-12,-1.110223e-16,0,7.705438e-18,0,0,0,0,5.322399e-19,-1.115545e-16,5.604339e-17,-48.951332,7.472452e-17,7.454774e-17,0,0,0,0,0,0
2.917253,2.242313,-10.6737,1.891618e-12,0,0,1.891618e-12,-1.110223e-16,-1.110223e-16,9.633072e-18,0,0,0,0,-1.013892e-16,-1.206554e-16,9.633072e-18,90,1.28441e-17,7.484603e-17,0,0,0,0,0,0
2.964544,2.242313,-10.654281,1.891618e-12,0,0,1.891618e-12,2.220446e-16,-1.110223e-16,-5.221553e-17,0,0,0,0,2.300387e-16,-1.190164e-16,1.745275e-16,36.295753,2.327033e-16,2.048968e-16,0,0,0,0,0,0
3.011834,2.242313,-10.633431,1.891618e-12,0,0,1.891618e-12,0,-4.440892e-16,6.353719e-19,0,0,0,0,9.09044e-22,-4.440901e-16,2.220455e-16,45.081974,2.960607e-16,2.960604e-16,0,0,0,0,0,0
3.059125,2.242313,-10.609707,1.891618e-12,0,0,1.891618e-12,2.220446e-16,2.220446e-16,-1.905143e-17,0,0,0,0,2.41096e-16,2.029932e-16,1.905143e-17,0,2.540191e-17,1.496554e-16,0,0,0,0,0,0
3.106415,2.242313,-10.58153,1.891618e-12,0,0,1.891618e-12,-2.220446e-16,2.220446e-16,1.670197e-17,0,0,0,0,2.226719e-16,-2.226719e-16,2.226719e-16,-47.150814,2.968958e-16,2.571193e-16,0,0,0,0,0,0
3.153705,2.242313,-10.548051,1.891618e-12,0,0,1.891618e-12,0,2.220446e-16,-5.228663e-17,0,0,0,0,2.337409e-16,-1.169625e-17,1.227186e-16,-32.390812,1.636247e-16,1.598687e-16,0,0,0,0,0,0
3.200996,2.242313,-10.507471,1.891618e-12,0,0,1.891618e-12,-2.220446e-16,2.220446e-16,1.393469e-17,0,0,0,0,2.224814e-16,-2.224814e-16,2.224814e-16,-46.795479,2.966419e-16,2.568994e-16,0,0,0,0,0,0
3.248286,2.242313,-10.459444,1.891618e-12,0,0,1.891618e-12,2.220446e-16,2.220446e-16,3.553489e-17,0,0,0,0,2.575795e-16,1.865097e-16,3.553489e-17,90,4.737985e-17,1.536113e-16,0,0,0,0,0,0
3.295577,2.242313,-10.400238,1.891618e-12,0,0,1.891618e-12,2.220446e-16,2.220446e-16,1.574543e-17,0,0,0,0,2.3779e-16,2.062992e-16,1.574543e-17,90,2.099391e-17,1.491421e-16,0,0,0,0,0,0
3.342867,2.242313,-10.336533,1.891618e-12,0,0,1.891618e-12,2.220446e-16,-1.110223e-16,5.264323e-17,0,0,0,0,2.301671e-16,-1.191448e-16,1.746559e-16,53.771187,2.328746e-16,2.050426e-16,0,0,0,0,0,0
1.451249,2.195023,-10.022077,1.891618e-12,0,0,1.891618e-12,2.220446e-16,2.220446e-16,-1.182854e-16,0,0,0,0,3.4033e-16,1.037592e-16,1.182854e-16,0,1.577138e-16,2.014151e-16,0,0,0,0,0,0
1.49854,2.195023,-10.100165,1.891618e-12,0,0,1.891618e-12,-1.110223e-16,0,-3.136734e-17,0,0,0,0,8.249322e-18,-1.192716e-16,6.376047e-17,-30.26539,8.501396e-17,8.240195e-17,0,0,0,0,0,0
1.54583,2.195023,-10.212406,1.891618e-12,0,0,1.891618e-12,2.220446e-16,-2.220446e-16,-4.643899e-17,0,0,0,0,2.268488e-16,-2.268488e-16,2.268488e-16,39.093639,3.024651e-16,2.619425e-16,0,0,0,0,0,0
1.593121,2.195023,-10.296682,1.891618e-12,0,0,1.891618e-12,2.220446e-16,0,-5.129254e-18,0,0,0,0,2.22163e-16,-1.184232e-19,1.111407e-16,43.677402,1.481876e-16,1.481482e-16,0,0,0,0,0,0
1.640411,2.195023,-10.364617,1.891618e-12,0,0,1.891618e-12,-1.110223e-16,2.220446e-16,-3.501127e-17,0,0,0,0,2.256851e-16,-1.146628e-16,1.70174e-16,-39.063644,2.268986e-16,1.999545e-16,0,0,0,0,0,0
1.687701,2.195023,-10.420459,1.891618e-12,0,0,1.891618e-12,-3.330669e-16,0,4.117659e-17,0,0,0,0,5.015091e-18,-3.38082e-16,1.715486e-16,-51.944122,2.287314e-16,2.270782e-16,0,0,0,0,0,0
1.734992,2.195023,-10.46933,1.891618e-12,0,0,1.891618e-12,-2.220446e-16,-2.220446e-16,-8.506392e-18,0,0,0,0,-2.135382e-16,-2.30551e-16,8.506392e-18,0,1.134186e-17,1.483553e-16,0,0,0,0,0,0
1.782282,2.195023,-10.512643,1.891618e-12,0,0,1.891618e-12,0,0,-2.218413e-17,0,0,0,0,2.218413e-17,-2.218413e-17,2.218413e-17,0,2.957884e-17,2.561603e-17,0,0,0,0,0,0
1.829573,2.195023,-10.550396,1.891618e-12,0,0,1.891618e-12,2.220446e-16,2.220446e-16,-3.113789e-17,0,0,0,0,2.531825e-16,1.909067e-16,3.113789e-17,0,4.151719e-17,1.523337e-16,0,0,0,0,0,0
1.876863,2.195023,-10.58464,1.891618e-12,0,0,1.891618e-12,0,-2.220446e-16,-4.490051e-17,0,0,0,0,8.735819e-18,-2.307804e-16,1.197581e-16,33.990108,1.596775e-16,1.568467e-16,0,0,0,0,0,0
1.924154,2.195023,-10.616774,1.891618e-12,0,0,1.891618e-12,2.220446e-16,0,-1.229513e-17,0,0,0,0,2.227233e-16,-6.787356e-19,1.11701e-16,41.840275,1.489347e-16,1.48709e-16,0,0,0,0,0,0
1.971444,2.195023,-10.647666,1.891618e-12,0,0,1.891618e-12,2.220446e-16,0,-8.143365e-18,0,0,0,0,2.223429e-16,-2.982528e-19,1.113206e-16,42.902466,1.484274e-16,1.483281e-16,0,0,0,0,0,0
2.018735,2.195023,-10.676526,1.891618e-12,0,0,1.891618e-12,-3.330669e-16,2.220446e-16,-2.248676e-17,0,0,0,0,2.22954e-16,-3.339763e-16,2.784652e-16,-42.68409,3.712869e-16,3.236665e-16,0,0,0,0,0,0
2.066025,2.195023,-10.701476,1.891618e-12,0,0,1.891618e-12,-1.110223e-16,-1.110223e-16,-6.757256e-17,0,0,0,0,-4.344975e-17,-1.785949e-16,6.757256e-17,0,9.009674e-17,1.075466e-16,0,0,0,0,0,0
2.113316,2.195023,-10.72151,1.891618e-12,0,0,1.891618e-12,2.220446e-16,2.220446e-16,1.688277e-17,0,0,0,0,2.389274e-16,2.051618e-16,1.688277e-17,90,2.251037e-17,1.493079e-16,0,0,0,0,0,0
2.160606,2.195023,-10.737113,1.891618e-12,0,0,1.891618e-12,0,0,6.111238e-18,0,0,0,0,6.111238e-18,-6.111238e-18,6.111238e-18,90,8.148317e-18,7.05665e-18,0,0,0,0,0,0
2.207896,2.195023,-10.74978,1.891618e-12,0,0,1.891618e-12,2.220446e-16,2.220446e-16,1.98202e-17,0,0,0,0,2.418648e-16,2.022244e-16,1.98202e-17,90,2.642694e-17,1.497885e-16,0,0,0,0,0,0
2.255187,2.195023,-10.76059,1.891618e-12,0,0,1.891618e-12,2.220446e-16,-1.110223e-16,2.151261e-17,0,0,0,0,2.234283e-16,-1.12406e-16,1.679172e-16,48.680321,2.238896e-16,1.973942e-16,0,0,0,0,0,0
2.302477,2.195023,-10.7688,1.891618e-12,0,0,1.891618e-12,0,2.220446e-16,3.669394e-17,0,0,0,0,2.279513e-16,-5.906721e-18,1.16929e-16,-54.144608,1.559054e-16,1.539742e-16,0,0,0,0,0,0
2.349768,2.195023,-10.774729,1.891618e-12,0,0,1.891618e-12,2.220446e-16,2.220446e-16,-3.193337e-17,0,0,0,0,2.53978e-16,1.901112e-16,3.193337e-17,0,4.257783e-17,1.525531e-16,0,0,0,0,0,0
2.397058,2.195023,-10.779417,1.891618e-12,0,0,1.891618e-12,-1.110223e-16,-1.110223e-16,5.887013e-17,0,0,0,0,-5.215218e-17,-1.698924e-16,5.887013e-17,90,7.84935e-17,1.004944e-16,0,0,0,0,0,0
2.444349,2.195023,-10.783631,1.891618e-12,0,0,1.891618e-12,-1.110223e-16,2.220446e-16,6.941818e-18,0,0,0,0,2.221892e-16,-1.111669e-16,1.666781e-16,-46.193474,2.222374e-16,1.959889e-16,0,0,0,0,0,0
2.491639,2.195023,-10.786612,1.891618e-12,0,0,1.891618e-12,2.220446e-16,2.220446e-16,-6.703744e-18,0,0,0,0,2.287483e-16,2.153409e-16,6.703744e-18,0,8.938325e-18,1.48232e-16,0,0,0,0,0,0
2.53893,2.195023,-10.786507,1.891618e-12,0,0,1.891618e-12,-1.110223e-16,2.220446e-16,-1.960271e-17,0,0,0,0,2.231943e-16,-1.121721e-16,1.676832e-16,-41.643295,2.235776e-16,1.971288e-16,0,0,0,0,0,0
2.58622,2.195023,-10.782207,1.891618e-12,0,0,1.891618e-12,-2.220446e-16,0,-4.453113e-17,0,0,0,0,8.597817e-18,-2.306424e-16,1.196201e-16,-34.072121,1.594935e-16,1.567062e-16,0,0,0,0,0,0
2.633511,2.195023,-10.77427,1.891618e-12,0,0,1.891618e-12,2.220446e-16,2.220446e-16,2.168367e-17,0,0,0,0,2.437283e-16,2.003609e-16,2.168367e-17,90,2.891155e-17,1.501323e-16,0,0,0,0,0,0
2.680801,2.195023,-10.76374,1.891618e-12,0,0,1.891618e-12,0,-2.220446e-16,4.822189e-17,0,0,0,0,1.002026e-17,-2.320649e-16,1.210426e-16,56.738716,1.613901e-16,1.581558e-16,0,0,0,0,0,0
2.728091,2.195023,-10.751139,1.891618e-12,0,0,1.891618e-12,-1.110223e-16,2.220446e-16,-2.372899e-17,0,0,0,0,2.237267e-16,-1.127044e-16,1.682155e-16,-40.94532,2.242873e-16,1.977325e-16,0,0,0,0,0,0
2.775382,2.195023,-10.735924,1.891618e-12,0,0,1.891618e-12,0,-1.110223e-16,-5.218285e-17,0,0,0,0,2.067637e-17,-1.316987e-16,7.618752e-17,23.385086,1.015834e-16,9.544073e-17,0,0,0,0,0,0
2.822672,2.195023,-10.718084,1.891618e-12,0,0,1.891618e-12,-1.110223e-16,2.220446e-16,-1.193798e-17,0,0,0,0,2.224719e-16,-1.114496e-16,1.669608e-16,-42.949879,2.226144e-16,1.963095e-16,0,0,0,0,0,0
2.869963,2.195023,-10.698848,1.891618e-12,0,0,1.891618e-12,0,0,2.088825e-17,0,0,0,0,2.088825e-17,-2.088825e-17,2.088825e-17,90,2.785101e-17,2.411968e-17,0,0,0,0,0,0
2.917253,2.195023,-10.679084,1.891618e-12,0,0,1.891618e-12,2.220446e-16,0,-3.885966e-17,0,0,0,0,2.286489e-16,-6.604332e-18,1.176266e-16,35.354549,1.568355e-16,1.546811e-16,0,0,0,0,0,0
2.964544,2.195023,-10.659286,1.891618e-12,0,0,1.891618e-12,2.220446e-16,-2.220446e-16,-2.510794e-17,0,0,0,0,2.234597e-16,-2.234597e-16,2.234597e-16,41.774311,2.979462e-16,2.58029e-16,0,0,0,0,0,0
3.011834,2.195023,-10.638255,1.891618e-12,0,0,1.891618e-12,0,0,-3.261356e-19,0,0,0,0,3.261356e-19,-3.261356e-19,3.261356e-19,0,4.348475e-19,3.76589e-19,0,0,0,0,0,0
3.059125,2.195023,-10.614178,1.891618e-12,0,0,1.891618e-12,2.220446e-16,0,2.671835e-17,0,0,0,0,2.252143e-16,-3.169736e-18,1.14192e-16,51.765675,1.522561e-16,1.512105e-16,0,0,0,0,0,0
3.106415,2.195023,-10.585458,1.891618e-12,0,0,1.891618e-12,0,-1.110223e-16,1.233551e-17,0,0,0,0,1.354065e-18,-1.123764e-16,5.686521e-17,51.264256,7.582029e-17,7.537299e-17,0,0,0,0,0,0
3.153705,2.195023,-10.551071,1.891618e-12,0,0,1.891618e-12,0,-1.110223e-16,-8.669118e-18,0,0,0,0,6.728458e-19,-1.116952e-16,5.6184e-17,40.561935,7.4912e-17,7.468872e-17,0,0,0,0,0,0
3.200996,2.195023,-10.509292,1.891618e-12,0,0,1.891618e-12,-2.220446e-16,2.220446e-16,-2.616403e-17,0,0,0,0,2.235808e-16,-2.235808e-16,2.235808e-16,-41.639847,2.981077e-16,2.581688e-16,0,0,0,0,0,0
3.248286,2.195023,-10.459941,1.891618e-12,0,0,1.891618e-12,-2.220446e-16,0,-9.921248e-18,0,0,0,0,4.424131e-19,-2.22487e-16,1.114647e-16,-42.446732,1.486196e-16,1.484724e-16,0,0,0,0,0,0
3.295577,2.195023,-10.400262,1.891618e-12,0,0,1.891618e-12,-1.110223e-16,0,-2.958959e-17,0,0,0,0,7.393792e-18,-1.184161e-16,6.290494e-17,-30.970329,8.387326e-17,8.15205e-17,0,0,0,0,0,0
3.342867,2.195023,-10.330742,1.891618e-12,0,0,1.891618e-12,-2.220446e-16,-1.110223e-16,-3.036986e-17,0,0,0,0,-1.032577e-16,-2.298092e-16,6.327572e-17,-30.658579,8.436762e-17,1.329074e-16,0,0,0,0,0,0
1.451249,2.147733,-10.026526,1.891618e-12,0,0,1.891618e-12,-2.220446e-16,2.220446e-16,7.852991e-17,0,0,0,0,2.355223e-16,-2.355223e-16,2.355223e-16,-54.73851,3.140297e-16,2.719577e-16,0,0,0,0,0,0
1.49854,2.147733,-10.105592,1.891618e-12,0,0,1.891618e-12,0,0,2.710752e-17,0,0,0,0,2.710752e-17,-2.710752e-17,2.710752e-17,90,3.614336e-17,3.130107e-17,0,0,0,0,0,0
1.54583,2.147733,-10.217118,1.891618e-12,0,0,1.891618e-12,0,-2.220446e-16,-5.193821e-17,0,0,0,0,1.154821e-17,-2.335928e-16,1.225705e-16,32.464485,1.634273e-16,1.597172e-16,0,0,0,0,0,0
1.593121,2.147733,-10.300395,1.891618e-12,0,0,1.891618e-12,-3.330669e-16,-1.110223e-16,-2.036652e-17,0,0,0,0,-1.091697e-16,-3.349195e-16,1.128749e-16,-39.802467,1.504999e-16,1.97232e-16,0,0,0,0,0,0
1.640411,2.147733,-10.36719,1.891618e-12,0,0,1.891618e-12,-1.110223e-16,2.220446e-16,1.781039e-17,0,0,0,0,2.229943e-16,-1.11972e-16,1.674831e-16,-48.052227,2.233108e-16,1.969019e-16,0,0,0,0,0,0
1.687701,2.147733,-10.421816,1.891618e-12,0,0,1.891618e-12,2.220446e-16,0,1.802594e-17,0,0,0,0,2.234985e-16,-1.453856e-18,1.124762e-16,49.611126,1.499682e-16,1.494859e-16,0,0,0,0,0,0
1.734992,2.147733,-10.469306,1.891618e-12,0,0,1.891618e-12,-2.220446e-16,2.220446e-16,5.313503e-18,0,0,0,0,2.221082e-16,-2.221082e-16,2.221082e-16,-45.68541,2.961442e-16,2.564684e-16,0,0,0,0,0,0
1.782282,2.147733,-10.511435,1.891618e-12,0,0,1.891618e-12,0,0,-1.927494e-17,0,0,0,0,1.927494e-17,-1.927494e-17,1.927494e-17,0,2.569991e-17,2.225678e-17,0,0,0,0,0,0
1.829573,2.147733,-10.548427,1.891618e-12,0,0,1.891618e-12,-2.220446e-16,2.220446e-16,2.184315e-17,0,0,0,0,2.231164e-16,-2.231164e-16,2.231164e-16,-47.809135,2.974885e-16,2.576326e-16,0,0,0,0,0,0
1.876863,2.147733,-10.582381,1.891618e-12,0,0,1.891618e-12,-2.220446e-16,2.220446e-16,9.891404e-18,0,0,0,0,2.222648e-16,-2.222648e-16,2.222648e-16,-46.275333,2.963531e-16,2.566493e-16,0,0,0,0,0,0
1.924154,2.147733,-10.614543,1.891618e-12,0,0,1.891618e-12,0,-2.220446e-16,-1.257534e-17,0,0,0,0,7.099252e-19,-2.227545e-16,1.117322e-16,41.768867,1.489763e-16,1.487402e-16,0,0,0,0,0,0
1.971444,2.147733,-10.64554,1.891618e-12,0,0,1.891618e-12,4.440892e-16,2.220446e-16,-2.466284e-17,0,0,0,0,4.467956e-16,2.193383e-16,1.137287e-16,38.737755,1.516382e-16,2.579717e-16,0,0,0,0,0,0
2.018735,2.147733,-10.674529,1.891618e-12,0,0,1.891618e-12,-4.440892e-16,0,-9.766597e-18,0,0,0,0,2.146873e-19,-4.443039e-16,2.222593e-16,-43.740738,2.963457e-16,2.962742e-16,0,0,0,0,0,0
2.066025,2.147733,-10.699877,1.891618e-12,0,0,1.891618e-12,-1.110223e-16,-1.110223e-16,-1.817264e-17,0,0,0,0,-9.284966e-17,-1.291949e-16,1.817264e-17,0,2.423019e-17,7.693197e-17,0,0,0,0,0,0
2.113316,2.147733,-10.720505,1.891618e-12,0,0,1.891618e-12,0,2.220446e-16,4.051171e-18,0,0,0,0,2.221185e-16,-7.388842e-20,1.110962e-16,-46.044888,1.481282e-16,1.481036e-16,0,0,0,0,0,0
2.160606,2.147733,-10.736933,1.891618e-12,0,0,1.891618e-12,-1.110223e-16,0,-1.656239e-17,0,0,0,0,2.418121e-18,-1.134404e-16,5.792927e-17,-36.693462,7.723903e-17,7.644574e-17,0,0,0,0,0,0
2.207896,2.147733,-10.750312,1.891618e-12,0,0,1.891618e-12,2.220446e-16,-2.220446e-16,3.251797e-17,0,0,0,0,2.244131e-16,-2.244131e-16,2.244131e-16,49.16581,2.992174e-16,2.591299e-16,0,0,0,0,0,0
2.255187,2.147733,-10.761197,1.891618e-12,0,0,1.891618e-12,0,2.220446e-16,1.713033e-17,0,0,0,0,2.233584e-16,-1.3138e-18,1.123361e-16,-49.385677,1.497815e-16,1.493455e-16,0,0,0,0,0,0
2.302477,2.147733,-10.768959,1.891618e-12,0,0,1.891618e-12,0,-1.110223e-16,8.691879e-19,0,0,0,0,6.804411e-21,-1.110291e-16,5.551795e-17,45.448528,7.402394e-17,7.402167e-17,0,0,0,0,0,0
2.349768,2.147733,-10.774219,1.891618e-12,0,0,1.891618e-12,2.220446e-16,0,-1.584721e-17,0,0,0,0,2.231699e-16,-1.125304e-18,1.121476e-16,40.938267,1.495301e-16,1.491565e-16,0,0,0,0,0,0
2.397058,2.147733,-10.778428,1.891618e-12,0,0,1.891618e-12,4.440892e-16,0,-3.532107e-17,0,0,0,0,4.46881e-16,-2.791745e-18,2.248363e-16,40.480789,2.997818e-16,2.988556e-16,0,0,0,0,0,0
2.444349,2.147733,-10.782865,1.891618e-12,0,0,1.891618e-12,2.220446e-16,2.220446e-16,-4.475937e-17,0,0,0,0,2.66804e-16,1.772852e-16,4.475937e-17,0,5.967916e-17,1.567929e-16,0,0,0,0,0,0
2.491639,2.147733,-10.78681,1.891618e-12,0,0,1.891618e-12,0,0,1.059254e-17,0,0,0,0,1.059254e-17,-1.059254e-17,1.059254e-17,90,1.412339e-17,1.223122e-17,0,0,0,0,0,0
2.53893,2.147733,-10.787867,1.891618e-12,0,0,1.891618e-12,2.220446e-16,0,-1.192931e-17,0,0,0,0,2.226837e-16,-6.390607e-19,1.116614e-16,41.933559,1.488818e-16,1.486693e-16,0,0,0,0,0,0
2.58622,2.147733,-10.784725,1.891618e-12,0,0,1.891618e-12,-2.220446e-16,2.220446e-16,-2.148497e-17,0,0,0,0,2.230816e-16,-2.230816e-16,2.230816e-16,-42.236641,2.974422e-16,2.575925e-16,0,0,0,0,0,0
2.633511,2.147733,-10.777905,1.891618e-12,0,0,1.891618e-12,0,-2.220446e-16,-1.742885e-17,0,0,0,0,1.359709e-18,-2.234043e-16,1.12382e-16,40.539116,1.498427e-16,1.493915e-16,0,0,0,0,0,0
2.680801,2.147733,-10.768265,1.891618e-12,0,0,1.891618e-12,2.220446e-16,0,-2.443454e-17,0,0,0,0,2.247017e-16,-2.657064e-18,1.136794e-16,38.793919,1.515725e-16,1.506946e-16,0,0,0,0,0,0
2.728091,2.147733,-10.756469,1.891618e-12,0,0,1.891618e-12,0,-1.110223e-16,1.112301e-18,0,0,0,0,1.114271e-20,-1.110334e-16,5.55223e-17,45.573952,7.402973e-17,7.402601e-17,0,0,0,0,0,0
2.775382,2.147733,-10.741669,1.891618e-12,0,0,1.891618e-12,-2.220446e-16,2.220446e-16,-1.900784e-17,0,0,0,0,2.228567e-16,-2.228567e-16,2.228567e-16,-42.553596,2.971423e-16,2.573327e-16,0,0,0,0,0,0
2.822672,2.147733,-10.723804,1.891618e-12,0,0,1.891618e-12,-1.110223e-16,2.220446e-16,-2.085639e-17,0,0,0,0,2.233455e-16,-1.123232e-16,1.678344e-16,-41.430767,2.237792e-16,1.973003e-16,0,0,0,0,0,0
2.869963,2.147733,-10.704098,1.891618e-12,0,0,1.891618e-12,-1.110223e-16,-1.110223e-16,4.999266e-17,0,0,0,0,-6.102964e-17,-1.61015e-16,4.999266e-17,90,6.665688e-17,9.386456e-17,0,0,0,0,0,0
2.917253,2.147733,-10.683679,1.891618e-12,0,0,1.891618e-12,0,0,-1.249678e-17,0,0,0,0,1.249678e-17,-1.249678e-17,1.249678e-17,0,1.666238e-17,1.443004e-17,0,0,0,0,0,0
2.964544,2.147733,-10.662924,1.891618e-12,0,0,1.891618e-12,2.220446e-16,2.220446e-16,-1.858637e-17,0,0,0,0,2.40631e-16,2.034582e-16,1.858637e-17,0,2.478182e-17,1.495774e-16,0,0,0,0,0,0
3.011834,2.147733,-10.640846,1.891618e-12,0,0,1.891618e-12,0,-2.220446e-16,3.549766e-18,0,0,0,0,5.673463e-20,-2.221013e-16,1.11079e-16,45.915661,1.481054e-16,1.480865e-16,0,0,0,0,0,0
3.059125,2.147733,-10.615525,1.891618e-12,0,0,1.891618e-12,0,-1.110223e-16,-2.088212e-17,0,0,0,0,3.797794e-18,-1.148201e-16,5.930894e-17,34.692379,7.907859e-17,7.784355e-17,0,0,0,0,0,0
3.106415,2.147733,-10.58561,1.891618e-12,0,0,1.891618e-12,2.220446e-16,2.220446e-16,-3.053004e-17,0,0,0,0,2.525746e-16,1.915146e-16,3.053004e-17,0,4.070671e-17,1.521696e-16,0,0,0,0,0,0
3.153705,2.147733,-10.550369,1.891618e-12,0,0,1.891618e-12,-2.220446e-16,2.220446e-16,-9.680258e-18,0,0,0,0,2.222555e-16,-2.222555e-16,2.222555e-16,-43.751858,2.963407e-16,2.566386e-16,0,0,0,0,0,0
3.200996,2.147733,-10.508361,1.891618e-12,0,0,1.891618e-12,-3.330669e-16,0,3.69912e-17,0,0,0,0,4.058869e-18,-3.371258e-16,1.705923e-16,-51.261742,2.274564e-16,2.261156e-16,0,0,0,0,0,0
3.248286,2.147733,-10.458707,1.891618e-12,0,0,1.891618e-12,-2.220446e-16,2.220446e-16,-1.136292e-17,0,0,0,0,2.223352e-16,-2.223352e-16,2.223352e-16,-43.535248,2.964469e-16,2.567305e-16,0,0,0,0,0,0
3.295577,2.147733,-10.399227,1.891618e-12,0,0,1.891618e-12,-1.110223e-16,-1.110223e-16,-3.663894e-17,0,0,0,0,-7.438336e-17,-1.476612e-16,3.663894e-17,0,4.885192e-17,8.525305e-17,0,0,0,0,0,0
3.342867,2.147733,-10.326557,1.891618e-12,0,0,1.891618e-12,0,-4.440892e-16,-2.660406e-17,0,0,0,0,1.588091e-18,-4.456773e-16,2.236327e-16,41.583866,2.981769e-16,2.97649e-16,0,0,0,0,0,0
3.390158,2.147733,-10.245087,1.891618e-12,0,0,1.891618e-12,2.220446e-16,-2.220446e-16,8.836635e-17,0,0,0,0,2.38982e-16,-2.38982e-16,2.38982e-16,55.850452,3.186427e-16,2.759527e-16,0,0,0,0,0,0
1.451249,2.100442,-10.0347,1.891618e-12,0,0,1.891618e-12,-5.551115e-16,-3.330669e-16,1.380935e-17,0,0,0,0,-3.322114e-16,-5.559671e-16,1.118778e-16,-48.54512,1.491704e-16,3.230172e-16,0,0,0,0,0,0
1.49854,2.100442,-10.113897,1.891618e-12,0,0,1.891618e-12,2.220446e-16,-1.110223e-16,-3.007785e-19,0,0,0,0,2.220449e-16,-1.110226e-16,1.665337e-16,44.948257,2.22045e-16,1.958252e-16,0,0,0,0,0,0
1.54583,2.100442,-10.223623,1.891618e-12,0,0,1.891618e-12,-3.330669e-16,-1.110223e-16,3.277758e-17,0,0,0,0,-1.062848e-16,-3.378044e-16,1.157598e-16,-53.224201,1.543463e-16,1.99449e-16,0,0,0,0,0,0
1.593121,2.100442,-10.305515,1.891618e-12,0,0,1.891618e-12,-1.110223e-16,2.220446e-16,4.073402e-17,0,0,0,0,2.26954e-16,-1.159317e-16,1.714429e-16,-51.87233,2.285905e-16,2.013945e-16,0,0,0,0,0,0
1.640411,2.100442,-10.370152,1.891618e-12,0,0,1.891618e-12,2.220446e-16,-1.110223e-16,3.146352e-17,0,0,0,0,2.249908e-16,-1.139685e-16,1.694796e-16,50.349449,2.259728e-16,1.991666e-16,0,0,0,0,0,0
1.687701,2.100442,-10.422927,1.891618e-12,0,0,1.891618e-12,0,2.220446e-16,2.222593e-17,0,0,0,0,2.242475e-16,-2.202887e-18,1.132252e-16,-50.660294,1.509669e-16,1.50238e-16,0,0,0,0,0,0
1.734992,2.100442,-10.469239,1.891618e-12,0,0,1.891618e-12,-2.220446e-16,2.220446e-16,1.249576e-17,0,0,0,0,2.223959e-16,-2.223959e-16,2.223959e-16,-46.610485,2.965279e-16,2.568007e-16,0,0,0,0,0,0
1.782282,2.100442,-10.510649,1.891618e-12,0,0,1.891618e-12,0,0,-9.082069e-18,0,0,0,0,9.082069e-18,-9.082069e-18,9.082069e-18,0,1.210943e-17,1.048707e-17,0,0,0,0,0,0
1.829573,2.100442,-10.547445,1.891618e-12,0,0,1.891618e-12,2.220446e-16,2.220446e-16,3.224358e-17,0,0,0,0,2.542882e-16,1.89801e-16,3.224358e-17,90,4.299144e-17,1.526401e-16,0,0,0,0,0,0
1.876863,2.100442,-10.581297,1.891618e-12,0,0,1.891618e-12,0,-1.110223e-16,3.989078e-18,0,0,0,0,1.431447e-19,-1.111655e-16,5.565429e-17,47.05513,7.420573e-17,7.415806e-17,0,0,0,0,0,0
1.924154,2.100442,-10.613411,1.891618e-12,0,0,1.891618e-12,2.220446e-16,0,-1.392519e-17,0,0,0,0,2.229145e-16,-8.698891e-19,1.118922e-16,41.425449,1.491896e-16,1.489005e-16,0,0,0,0,0,0
1.971444,2.100442,-10.644235,1.891618e-12,0,0,1.891618e-12,2.220446e-16,0,-1.629274e-17,0,0,0,0,2.232337e-16,-1.189128e-18,1.122114e-16,40.825661,1.496152e-16,1.492204e-16,0,0,0,0,0,0
2.018735,2.100442,-10.673262,1.891618e-12,0,0,1.891618e-12,-1.110223e-16,-1.110223e-16,2.26198e-17,0,0,0,0,-8.840251e-17,-1.336421e-16,2.26198e-17,90,3.015973e-17,7.848826e-17,0,0,0,0,0,0
2.066025,2.100442,-10.69905,1.891618e-12,0,0,1.891618e-12,-2.220446e-16,0,-2.752718e-17,0,0,0,0,3.361687e-18,-2.254063e-16,1.14384e-16,-38.037373,1.52512e-16,1.514039e-16,0,0,0,0,0,0
2.113316,2.100442,-10.720616,1.891618e-12,0,0,1.891618e-12,-2.220446e-16,-1.110223e-16,-1.036344e-17,0,0,0,0,-1.100632e-16,-2.230037e-16,5.647024e-17,-39.712563,7.529367e-17,1.287548e-16,0,0,0,0,0,0
2.160606,2.100442,-10.738029,1.891618e-12,0,0,1.891618e-12,0,0,-4.970016e-18,0,0,0,0,4.970016e-18,-4.970016e-18,4.970016e-18,0,6.626688e-18,5.73888e-18,0,0,0,0,0,0
2.207896,2.100442,-10.751812,1.891618e-12,0,0,1.891618e-12,2.220446e-16,2.220446e-16,-1.316273e-17,0,0,0,0,2.352073e-16,2.088819e-16,1.316273e-17,0,1.75503e-17,1.48808e-16,0,0,0,0,0,0
2.255187,2.100442,-10.762323,1.891618e-12,0,0,1.891618e-12,-1.110223e-16,-1.110223e-16,6.519289e-18,0,0,0,0,-1.04503e-16,-1.175416e-16,6.519289e-18,90,8.692386e-18,7.43967e-17,0,0,0,0,0,0
2.302477,2.100442,-10.769441,1.891618e-12,0,0,1.891618e-12,0,-2.220446e-16,-4.59118e-17,0,0,0,0,9.118635e-18,-2.311632e-16,1.201409e-16,33.766556,1.601879e-16,1.572365e-16,0,0,0,0,0,0
2.349768,2.100442,-10.77387,1.891618e-12,0,0,1.891618e-12,0,0,1.557517e-17,0,0,0,0,1.557517e-17,-1.557517e-17,1.557517e-17,90,2.076689e-17,1.798466e-17,0,0,0,0,0,0
2.397058,2.100442,-10.777413,1.891618e-12,0,0,1.891618e-12,2.220446e-16,0,2.64912e-17,0,0,0,0,2.251614e-16,-3.116802e-18,1.141391e-16,51.710243,1.521855e-16,1.511573e-16,0,0,0,0,0,0
2.444349,2.100442,-10.781316,1.891618e-12,0,0,1.891618e-12,2.220446e-16,-1.110223e-16,6.654512e-18,0,0,0,0,2.221775e-16,-1.111552e-16,1.666664e-16,46.144131,2.222218e-16,1.959756e-16,0,0,0,0,0,0
2.491639,2.100442,-10.785093,1.891618e-12,0,0,1.891618e-12,2.220446e-16,0,-5.908928e-18,0,0,0,0,2.222017e-16,-1.571339e-19,1.111794e-16,43.476715,1.482392e-16,1.481869e-16,0,0,0,0,0,0
2.53893,2.100442,-10.786387,1.891618e-12,0,0,1.891618e-12,-1.110223e-16,2.220446e-16,2.41631e-17,0,0,0,0,2.237884e-16,-1.127661e-16,1.682773e-16,-49.127846,2.243697e-16,1.978026e-16,0,0,0,0,0,0
2.58622,2.100442,-10.783795,1.891618e-12,0,0,1.891618e-12,2.220446e-16,2.220446e-16,-2.718994e-17,0,0,0,0,2.492345e-16,1.948547e-16,2.718994e-17,0,3.625325e-17,1.513226e-16,0,0,0,0,0,0
2.633511,2.100442,-10.777706,1.891618e-12,0,0,1.891618e-12,4.440892e-16,2.220446e-16,4.334981e-17,0,0,0,0,4.522523e-16,2.138815e-16,1.191854e-16,55.664337,1.589138e-16,2.612355e-16,0,0,0,0,0,0
2.680801,2.100442,-10.769134,1.891618e-12,0,0,1.891618e-12,0,2.220446e-16,4.827768e-17,0,0,0,0,2.320871e-16,-1.00425e-17,1.210648e-16,-56.750828,1.614197e-16,1.581785e-16,0,0,0,0,0,0
2.728091,2.100442,-10.758418,1.891618e-12,0,0,1.891618e-12,0,2.220446e-16,2.955554e-17,0,0,0,0,2.259113e-16,-3.866694e-18,1.14889e-16,-52.453564,1.531853e-16,1.519128e-16,0,0,0,0,0,0
2.775382,2.100442,-10.744494,1.891618e-12,0,0,1.891618e-12,2.220446e-16,2.220446e-16,1.138151e-17,0,0,0,0,2.334261e-16,2.106631e-16,1.138151e-17,90,1.517535e-17,1.48612e-16,0,0,0,0,0,0
2.822672,2.100442,-10.726892,1.891618e-12,0,0,1.891618e-12,0,-1.110223e-16,2.618948e-17,0,0,0,0,5.867808e-18,-1.168901e-16,6.137896e-17,57.628681,8.183861e-17,7.995448e-17,0,0,0,0,0,0
2.869963,2.100442,-10.706928,1.891618e-12,0,0,1.891618e-12,0,-1.110223e-16,-9.074659e-18,0,0,0,0,7.368474e-19,-1.117592e-16,5.6248e-17,40.357861,7.499733e-17,7.475293e-17,0,0,0,0,0,0
2.917253,2.100442,-10.686133,1.891618e-12,0,0,1.891618e-12,2.220446e-16,-2.220446e-16,1.782424e-17,0,0,0,0,2.227589e-16,-2.227589e-16,2.227589e-16,47.294739,2.970118e-16,2.572198e-16,0,0,0,0,0,0
2.964544,2.100442,-10.664756,1.891618e-12,0,0,1.891618e-12,-3.330669e-16,-1.110223e-16,7.711226e-18,0,0,0,0,-1.107548e-16,-3.333344e-16,1.112898e-16,-46.986591,1.483864e-16,1.960273e-16,0,0,0,0,0,0
3.011834,2.100442,-10.641713,1.891618e-12,0,0,1.891618e-12,0,4.440892e-16,2.21183e-18,0,0,0,0,4.441002e-16,-1.101596e-20,2.220556e-16,-45.285358,2.960742e-16,2.960705e-16,0,0,0,0,0,0
3.059125,2.100442,-10.614946,1.891618e-12,0,0,1.891618e-12,0,0,1.780564e-17,0,0,0,0,1.780564e-17,-1.780564e-17,1.780564e-17,90,2.374085e-17,2.056018e-17,0,0,0,0,0,0
3.106415,2.100442,-10.583493,1.891618e-12,0,0,1.891618e-12,0,-1.110223e-16,-3.109145e-19,0,0,0,0,8.706996e-22,-1.110232e-16,5.551202e-17,44.839546,7.401603e-17,7.401574e-17,0,0,0,0,0,0
3.153705,2.100442,-10.547284,1.891618e-12,0,0,1.891618e-12,2.220446e-16,0,6.156603e-17,0,0,0,0,2.379724e-16,-1.59278e-17,1.269501e-16,59.505005,1.692668e-16,1.642152e-16,0,0,0,0,0,0
3.200996,2.100442,-10.505546,1.891618e-12,0,0,1.891618e-12,2.220446e-16,0,-8.246905e-18,0,0,0,0,2.223505e-16,-3.058749e-19,1.113282e-16,42.875893,1.484376e-16,1.483357e-16,0,0,0,0,0,0
3.248286,2.100442,-10.456758,1.891618e-12,0,0,1.891618e-12,-2.220446e-16,2.220446e-16,-1.167257e-17,0,0,0,0,2.223512e-16,-2.223512e-16,2.223512e-16,-43.495407,2.964683e-16,2.567491e-16,0,0,0,0,0,0
3.295577,2.100442,-10.397496,1.891618e-12,0,0,1.891618e-12,0,-1.110223e-16,-4.975065e-18,0,0,0,0,2.224937e-19,-1.112448e-16,5.573364e-17,42.439339,7.431152e-17,7.423747e-17,0,0,0,0,0,0
3.342867,2.100442,-10.326051,1.891618e-12,0,0,1.891618e-12,2.220446e-16,2.220446e-16,-2.564157e-17,0,0,0,0,2.476862e-16,1.96403e-16,2.564157e-17,0,3.418876e-17,1.509618e-16,0,0,0,0,0,0
3.390158,2.100442,-10.249777,1.891618e-12,0,0,1.891618e-12,2.220446e-16,0,-4.818728e-17,0,0,0,0,2.320511e-16,-1.000648e-17,1.210288e-16,33.268795,1.613717e-16,1.581418e-16,0,0,0,0,0,0
1.451249,2.053152,-10.044149,1.891618e-12,0,0,1.891618e-12,-2.220446e-16,0,-2.140394e-18,0,0,0,0,2.063036e-20,-2.220652e-16,1.110429e-16,-44.447765,1.480572e-16,1.480504e-16,0,0,0,0,0,0
1.49854,2.053152,-10.122581,1.891618e-12,0,0,1.891618e-12,-2.220446e-16,2.220446e-16,5.931324e-17,0,0,0,0,2.298301e-16,-2.298301e-16,2.298301e-16,-52.477913,3.064401e-16,2.653849e-16,0,0,0,0,0,0
1.54583,2.053152,-10.229658,1.891618e-12,0,0,1.891618e-12,4.440892e-16,0,-4.468305e-18,0,0,0,0,4.441342e-16,-4.495432e-20,2.220896e-16,44.423584,2.961194e-16,2.961044e-16,0,0,0,0,0,0
1.593121,2.053152,-10.310013,1.891618e-12,0,0,1.891618e-12,0,-1.110223e-16,5.620409e-17,0,0,0,0,2.348497e-17,-1.345073e-16,7.899613e-17,67.677689,1.053282e-16,9.843814e-17,0,0,0,0,0,0
1.640411,2.053152,-10.372993,1.891618e-12,0,0,1.891618e-12,0,2.220446e-16,6.533436e-17,0,0,0,0,2.398421e-16,-1.779746e-17,1.288198e-16,-60.237972,1.717597e-16,1.661452e-16,0,0,0,0,0,0
1.687701,2.053152,-10.424865,1.891618e-12,0,0,1.891618e-12,-2.220446e-16,2.220446e-16,-4.050827e-17,0,0,0,0,2.257094e-16,-2.257094e-16,2.257094e-16,-39.830528,3.009459e-16,2.606267e-16,0,0,0,0,0,0
1.734992,2.053152,-10.471096,1.891618e-12,0,0,1.891618e-12,2.220446e-16,-2.220446e-16,2.556071e-17,0,0,0,0,2.23511e-16,-2.23511e-16,2.23511e-16,48.283356,2.980146e-16,2.580882e-16,0,0,0,0,0,0
1.782282,2.053152,-10.512569,1.891618e-12,0,0,1.891618e-12,0,-1.110223e-16,-1.440275e-17,0,0,0,0,1.838017e-18,-1.128603e-16,5.734917e-17,37.72747,7.646556e-17,7.586031e-17,0,0,0,0,0,0
1.829573,2.053152,-10.549375,1.891618e-12,0,0,1.891618e-12,0,-1.110223e-16,3.119352e-17,0,0,0,0,8.163989e-18,-1.191863e-16,6.367514e-17,59.666523,8.490018e-17,8.231392e-17,0,0,0,0,0,0
1.876863,2.053152,-10.583231,1.891618e-12,0,0,1.891618e-12,0,0,2.021791e-17,0,0,0,0,2.021791e-17,-2.021791e-17,2.021791e-17,90,2.695722e-17,2.334563e-17,0,0,0,0,0,0
1.924154,2.053152,-10.615226,1.891618e-12,0,0,1.891618e-12,-2.220446e-16,-1.110223e-16,-1.956231e-17,0,0,0,0,-1.076762e-16,-2.253907e-16,5.885722e-17,-35.29369,7.847629e-17,1.301724e-16,0,0,0,0,0,0
1.971444,2.053152,-10.64566,1.891618e-12,0,0,1.891618e-12,0,2.220446e-16,-1.140018e-17,0,0,0,0,2.226284e-16,-5.837718e-19,1.116061e-16,-42.068604,1.488081e-16,1.486139e-16,0,0,0,0,0,0
2.018735,2.053152,-10.67471,1.891618e-12,0,0,1.891618e-12,-2.220446e-16,0,-3.583363e-17,0,0,0,0,5.639606e-18,-2.276842e-16,1.166619e-16,-36.055981,1.555492e-16,1.537038e-16,0,0,0,0,0,0
2.066025,2.053152,-10.700926,1.891618e-12,0,0,1.891618e-12,0,-2.220446e-16,-3.145862e-17,0,0,0,0,4.370923e-18,-2.264155e-16,1.153932e-16,37.089851,1.538576e-16,1.524216e-16,0,0,0,0,0,0
2.113316,2.053152,-10.723229,1.891618e-12,0,0,1.891618e-12,-1.110223e-16,0,5.483261e-18,0,0,0,0,2.701544e-19,-1.112925e-16,5.578131e-17,-47.820621,7.437507e-17,7.428519e-17,0,0,0,0,0,0
2.160606,2.053152,-10.741129,1.891618e-12,0,0,1.891618e-12,2.220446e-16,2.220446e-16,-1.28814e-17,0,0,0,0,2.34926e-16,2.091632e-16,1.28814e-17,0,1.71752e-17,1.487751e-16,0,0,0,0,0,0
2.207896,2.053152,-10.754696,1.891618e-12,0,0,1.891618e-12,2.220446e-16,2.220446e-16,-2.490933e-17,0,0,0,0,2.469539e-16,1.971353e-16,2.490933e-17,0,3.321244e-17,1.507982e-16,0,0,0,0,0,0
2.255187,2.053152,-10.76451,1.891618e-12,0,0,1.891618e-12,-1.110223e-16,2.220446e-16,3.456575e-17,0,0,0,0,2.25594e-16,-1.145717e-16,1.700829e-16,-50.862919,2.267772e-16,1.998511e-16,0,0,0,0,0,0
2.302477,2.053152,-10.770891,1.891618e-12,0,0,1.891618e-12,2.220446e-16,0,-1.447544e-17,0,0,0,0,2.229843e-16,-9.397e-19,1.11962e-16,41.285751,1.492827e-16,1.489704e-16,0,0,0,0,0,0
2.349768,2.053152,-10.774311,1.891618e-12,0,0,1.891618e-12,-1.110223e-16,0,-4.887427e-18,0,0,0,0,2.147391e-19,-1.11237e-16,5.572589e-17,-42.484211,7.430119e-17,7.422971e-17,0,0,0,0,0,0
2.397058,2.053152,-10.776895,1.891618e-12,0,0,1.891618e-12,-4.440892e-16,0,-8.598098e-19,0,0,0,0,1.664688e-21,-4.440909e-16,2.220463e-16,-44.889069,2.960617e-16,2.960611e-16,0,0,0,0,0,0
2.444349,2.053152,-10.779737,1.891618e-12,0,0,1.891618e-12,2.220446e-16,0,1.893835e-17,0,0,0,0,2.236483e-16,-1.603684e-18,1.12626e-16,49.840214,1.50168e-16,1.496363e-16,0,0,0,0,0,0
2.491639,2.053152,-10.782763,1.891618e-12,0,0,1.891618e-12,2.220446e-16,-1.110223e-16,1.535567e-17,0,0,0,0,2.227511e-16,-1.117288e-16,1.672399e-16,47.634106,2.229866e-16,1.96626e-16,0,0,0,0,0,0
2.53893,2.053152,-10.783786,1.891618e-12,0,0,1.891618e-12,-2.220446e-16,0,1.884848e-17,0,0,0,0,1.588607e-18,-2.236332e-16,1.126109e-16,-49.817673,1.501479e-16,1.496212e-16,0,0,0,0,0,0
2.58622,2.053152,-10.781259,1.891618e-12,0,0,1.891618e-12,0,2.220446e-16,-2.710996e-17,0,0,0,0,2.253066e-16,-3.262e-18,1.142843e-16,-38.138885,1.523791e-16,1.513035e-16,0,0,0,0,0,0
2.633511,2.053152,-10.775628,1.891618e-12,0,0,1.891618e-12,2.220446e-16,-1.110223e-16,3.307689e-18,0,0,0,0,2.220775e-16,-1.110552e-16,1.665663e-16,45.568932,2.220884e-16,1.958622e-16,0,0,0,0,0,0
2.680801,2.053152,-10.768138,1.891618e-12,0,0,1.891618e-12,-1.110223e-16,2.220446e-16,4.796724e-17,0,0,0,0,2.288151e-16,-1.177928e-16,1.733039e-16,-53.034092,2.310719e-16,2.035073e-16,0,0,0,0,0,0
2.728091,2.053152,-10.758551,1.891618e-12,0,0,1.891618e-12,2.220446e-16,2.220446e-16,2.731518e-17,0,0,0,0,2.493598e-16,1.947294e-16,2.731518e-17,90,3.642024e-17,1.513527e-16,0,0,0,0,0,0
2.775382,2.053152,-10.74564,1.891618e-12,0,0,1.891618e-12,2.220446e-16,0,6.221567e-18,0,0,0,0,2.222188e-16,-1.741882e-19,1.111965e-16,46.603718,1.48262e-16,1.48204e-16,0,0,0,0,0,0
2.822672,2.053152,-10.728757,1.891618e-12,0,0,1.891618e-12,0,0,9.155851e-18,0,0,0,0,9.155851e-18,-9.155851e-18,9.155851e-18,90,1.22078e-17,1.057227e-17,0,0,0,0,0,0
2.869963,2.053152,-10.708968,1.891618e-12,0,0,1.891618e-12,-2.220446e-16,0,-3.075318e-17,0,0,0,0,4.180603e-18,-2.262252e-16,1.152029e-16,-37.258636,1.536039e-16,1.522295e-16,0,0,0,0,0,0
2.917253,2.053152,-10.687991,1.891618e-12,0,0,1.891618e-12,-1.110223e-16,0,-1.491013e-17,0,0,0,0,1.967539e-18,-1.129898e-16,5.747869e-17,-37.482689,7.663825e-17,7.59909e-17,0,0,0,0,0,0
2.964544,2.053152,-10.666338,1.891618e-12,0,0,1.891618e-12,2.220446e-16,4.440892e-16,-3.275166e-17,0,0,0,0,4.488193e-16,2.173145e-16,1.157524e-16,-36.781952,1.543366e-16,2.591691e-16,0,0,0,0,0,0
3.011834,2.053152,-10.642605,1.891618e-12,0,0,1.891618e-12,-2.220446e-16,0,1.380851e-17,0,0,0,0,8.554278e-19,-2.229e-16,1.118777e-16,-48.544907,1.491703e-16,1.48886e-16,0,0,0,0,0,0
3.059125,2.053152,-10.614791,1.891618e-12,0,0,1.891618e-12,0,0,-2.654411e-17,0,0,0,0,2.654411e-17,-2.654411e-17,2.654411e-17,0,3.539215e-17,3.06505e-17,0,0,0,0,0,0
3.106415,2.053152,-10.582149,1.891618e-12,0,0,1.891618e-12,0,0,2.44205e-17,0,0,0,0,2.44205e-17,-2.44205e-17,2.44205e-17,90,3.256067e-17,2.819837e-17,0,0,0,0,0,0
3.153705,2.053152,-10.544985,1.891618e-12,0,0,1.891618e-12,-2.220446e-16,-2.220446e-16,2.701902e-18,0,0,0,0,-2.193427e-16,-2.247465e-16,2.701902e-18,90,3.602536e-18,1.480626e-16,0,0,0,0,0,0
3.200996,2.053152,-10.503302,1.891618e-12,0,0,1.891618e-12,-2.220446e-16,0,-7.070986e-18,0,0,0,0,2.249468e-19,-2.222695e-16,1.112473e-16,-43.177883,1.483297e-16,1.482547e-16,0,0,0,0,0,0
3.248286,2.053152,-10.455599,1.891618e-12,0,0,1.891618e-12,-2.220446e-16,0,-7.399823e-17,0,0,0,0,2.240067e-17,-2.444453e-16,1.33423e-16,-28.157938,1.778973e-16,1.709204e-16,0,0,0,0,0,0
3.295577,2.053152,-10.396114,1.891618e-12,0,0,1.891618e-12,2.220446e-16,2.220446e-16,-1.030585e-18,0,0,0,0,2.230752e-16,2.21014e-16,1.030585e-18,0,1.374113e-18,1.480345e-16,0,0,0,0,0,0
3.342867,2.053152,-10.32461,1.891618e-12,0,0,1.891618e-12,2.220446e-16,2.220446e-16,-1.09111e-17,0,0,0,0,2.329557e-16,2.111335e-16,1.09111e-17,0,1.454813e-17,1.485649e-16,0,0,0,0,0,0
3.390158,2.053152,-10.248761,1.891618e-12,0,0,1.891618e-12,-4.440892e-16,2.220446e-16,-3.709723e-17,0,0,0,0,2.241042e-16,-4.461488e-16,3.351265e-16,-41.822273,4.468353e-16,3.939855e-16,0,0,0,0,0,0
1.451249,2.005861,-10.052666,1.891618e-12,0,0,1.891618e-12,4.440892e-16,2.220446e-16,8.056582e-17,0,0,0,0,4.702412e-16,1.958926e-16,1.371744e-16,62.983677,1.828991e-16,2.727506e-16,0,0,0,0,0,0
1.49854,2.005861,-10.129231,1.891618e-12,0,0,1.891618e-12,2.220446e-16,-2.220446e-16,2.399428e-17,0,0,0,0,2.233373e-16,-2.233373e-16,2.233373e-16,48.083744,2.97783e-16,2.578877e-16,0,0,0,0,0,0
1.54583,2.005861,-10.233067,1.891618e-12,0,0,1.891618e-12,2.220446e-16,-2.220446e-16,3.483124e-17,0,0,0,0,2.247599e-16,-2.247599e-16,2.247599e-16,49.457554,2.996799e-16,2.595304e-16,0,0,0,0,0,0
1.593121,2.005861,-10.312195,1.891618e-12,0,0,1.891618e-12,-1.110223e-16,-4.440892e-16,-1.16058e-16,0,0,0,0,-7.457093e-17,-4.805406e-16,2.029848e-16,27.563589,2.706464e-16,2.986233e-16,0,0,0,0,0,0
1.640411,2.005861,-10.375055,1.891618e-12,0,0,1.891618e-12,2.220446e-16,2.220446e-16,-4.889503e-18,0,0,0,0,2.269341e-16,2.171551e-16,4.889503e-18,0,6.519337e-18,1.481374e-16,0,0,0,0,0,0
1.687701,2.005861,-10.427481,1.891618e-12,0,0,1.891618e-12,0,2.220446e-16,-3.957399e-18,0,0,0,0,2.221151e-16,-7.050851e-20,1.110928e-16,-43.979275,1.481237e-16,1.481003e-16,0,0,0,0,0,0
1.734992,2.005861,-10.474455,1.891618e-12,0,0,1.891618e-12,0,2.220446e-16,4.448232e-17,0,0,0,0,2.306243e-16,-8.579657e-18,1.19602e-16,-55.91703,1.594693e-16,1.566877e-16,0,0,0,0,0,0
1.782282,2.005861,-10.51651,1.891618e-12,0,0,1.891618e-12,-2.220446e-16,-1.110223e-16,-1.075122e-17,0,0,0,0,-1.099908e-16,-2.230762e-16,5.65427e-17,-39.519424,7.539026e-17,1.287972e-16,0,0,0,0,0,0
1.829573,2.005861,-10.553717,1.891618e-12,0,0,1.891618e-12,-4.440892e-16,0,-8.765419e-18,0,0,0,0,1.729442e-19,-4.442622e-16,2.222176e-16,-43.869686,2.962901e-16,2.962324e-16,0,0,0,0,0,0
1.876863,2.005861,-10.587518,1.891618e-12,0,0,1.891618e-12,0,-1.110223e-16,-1.497668e-17,0,0,0,0,1.984839e-18,-1.130071e-16,5.749599e-17,37.450661,7.666132e-17,7.600835e-17,0,0,0,0,0,0
1.924154,2.005861,-10.618907,1.891618e-12,0,0,1.891618e-12,-2.220446e-16,4.440892e-16,-6.265844e-18,0,0,0,0,4.441481e-16,-2.221035e-16,3.331258e-16,-44.461124,4.441678e-16,3.917167e-16,0,0,0,0,0,0
1.971444,2.005861,-10.648635,1.891618e-12,0,0,1.891618e-12,2.220446e-16,2.220446e-16,2.792579e-17,0,0,0,0,2.499704e-16,1.941188e-16,2.792579e-17,90,3.723438e-17,1.515012e-16,0,0,0,0,0,0
2.018735,2.005861,-10.677588,1.891618e-12,0,0,1.891618e-12,-1.110223e-16,2.220446e-16,9.53685e-19,0,0,0,0,2.220473e-16,-1.11025e-16,1.665362e-16,-45.164055,2.220483e-16,1.95828e-16,0,0,0,0,0,0
2.066025,2.005861,-10.704684,1.891618e-12,0,0,1.891618e-12,-1.110223e-16,-2.220446e-16,2.110108e-17,0,0,0,0,-1.071471e-16,-2.259198e-16,5.938639e-17,55.406483,7.918186e-17,1.304924e-16,0,0,0,0,0,0
2.113316,2.005861,-10.72795,1.891618e-12,0,0,1.891618e-12,0,0,1.103445e-17,0,0,0,0,1.103445e-17,-1.103445e-17,1.103445e-17,90,1.47126e-17,1.274148e-17,0,0,0,0,0,0
2.160606,2.005861,-10.746204,1.891618e-12,0,0,1.891618e-12,0,-2.220446e-16,-3.673928e-17,0,0,0,0,5.920958e-18,-2.279656e-16,1.169433e-16,35.844845,1.559244e-16,1.539886e-16,0,0,0,0,0,0
2.207896,2.005861,-10.759284,1.891618e-12,0,0,1.891618e-12,-1.110223e-16,2.220446e-16,-1.969627e-17,0,0,0,0,2.232053e-16,-1.12183e-16,1.676942e-16,-41.627419,2.235922e-16,1.971412e-16,0,0,0,0,0,0
2.255187,2.005861,-10.76817,1.891618e-12,0,0,1.891618e-12,2.220446e-16,-2.220446e-16,-1.101077e-17,0,0,0,0,2.223174e-16,-2.223174e-16,2.223174e-16,43.58057,2.964233e-16,2.567101e-16,0,0,0,0,0,0
2.302477,2.005861,-10.773768,1.891618e-12,0,0,1.891618e-12,-1.110223e-16,-1.110223e-16,9.775791e-18,0,0,0,0,-1.012465e-16,-1.207981e-16,9.775791e-18,90,1.303439e-17,7.48707e-17,0,0,0,0,0,0
2.349768,2.005861,-10.776733,1.891618e-12,0,0,1.891618e-12,0,2.220446e-16,4.968777e-17,0,0,0,0,2.326563e-16,-1.061168e-17,1.21634e-16,-57.055393,1.621786e-16,1.587597e-16,0,0,0,0,0,0
2.397058,2.005861,-10.778618,1.891618e-12,0,0,1.891618e-12,-1.110223e-16,0,1.86427e-17,0,0,0,0,3.046838e-18,-1.140691e-16,5.855799e-17,-54.281979,7.807732e-17,7.708178e-17,0,0,0,0,0,0
2.444349,2.005861,-10.780429,1.891618e-12,0,0,1.891618e-12,-1.110223e-16,-2.220446e-16,-3.605197e-17,0,0,0,0,-1.003426e-16,-2.327243e-16,6.619087e-17,28.499056,8.82545e-17,1.347872e-16,0,0,0,0,0,0
2.491639,2.005861,-10.782055,1.891618e-12,0,0,1.891618e-12,-1.110223e-16,2.220446e-16,2.837618e-18,0,0,0,0,2.220688e-16,-1.110465e-16,1.665576e-16,-45.488094,2.220768e-16,1.958523e-16,0,0,0,0,0,0
2.53893,2.005861,-10.781993,1.891618e-12,0,0,1.891618e-12,0,0,2.37855e-17,0,0,0,0,2.37855e-17,-2.37855e-17,2.37855e-17,90,3.1714e-17,2.746513e-17,0,0,0,0,0,0
2.58622,2.005861,-10.778939,1.891618e-12,0,0,1.891618e-12,0,-1.110223e-16,-2.487582e-17,0,0,0,0,5.318893e-18,-1.163412e-16,6.083004e-17,32.930878,8.110673e-17,7.939317e-17,0,0,0,0,0,0
2.633511,2.005861,-10.773481,1.891618e-12,0,0,1.891618e-12,-2.220446e-16,2.220446e-16,2.435528e-17,0,0,0,0,2.233763e-16,-2.233763e-16,2.233763e-16,-48.129772,2.978351e-16,2.579328e-16,0,0,0,0,0,0
2.680801,2.005861,-10.766843,1.891618e-12,0,0,1.891618e-12,0,0,-5.837019e-18,0,0,0,0,5.837019e-18,-5.837019e-18,5.837019e-18,0,7.782693e-18,6.740009e-18,0,0,0,0,0,0
2.728091,2.005861,-10.75826,1.891618e-12,0,0,1.891618e-12,-2.220446e-16,0,-6.432614e-18,0,0,0,0,1.861962e-19,-2.222308e-16,1.112085e-16,-43.341999,1.48278e-16,1.48216e-16,0,0,0,0,0,0
2.775382,2.005861,-10.7463,1.891618e-12,0,0,1.891618e-12,-2.220446e-16,-1.110223e-16,5.682839e-18,0,0,0,0,-1.107322e-16,-2.223347e-16,5.580128e-17,-47.922588,7.440171e-17,1.283653e-16,0,0,0,0,0,0
2.822672,2.005861,-10.730098,1.891618e-12,0,0,1.891618e-12,-2.220446e-16,2.220446e-16,-1.278701e-17,0,0,0,0,2.224125e-16,-2.224125e-16,2.224125e-16,-43.352058,2.9655e-16,2.568198e-16,0,0,0,0,0,0
2.869963,2.005861,-10.710443,1.891618e-12,0,0,1.891618e-12,0,-2.220446e-16,-2.440755e-17,0,0,0,0,2.651265e-18,-2.246959e-16,1.136736e-16,38.800564,1.515648e-16,1.506888e-16,0,0,0,0,0,0
2.917253,2.005861,-10.689569,1.891618e-12,0,0,1.891618e-12,2.220446e-16,-1.110223e-16,-2.054865e-17,0,0,0,0,2.233076e-16,-1.122853e-16,1.677964e-16,41.482899,2.237286e-16,1.972572e-16,0,0,0,0,0,0
2.964544,2.005861,-10.668157,1.891618e-12,0,0,1.891618e-12,-1.110223e-16,2.220446e-16,-3.23465e-17,0,0,0,0,2.251569e-16,-1.141346e-16,1.696458e-16,-39.504032,2.261944e-16,1.993551e-16,0,0,0,0,0,0
3.011834,2.005861,-10.644426,1.891618e-12,0,0,1.891618e-12,0,-1.110223e-16,-4.543961e-18,0,0,0,0,1.856664e-19,-1.11208e-16,5.569682e-17,42.660194,7.426242e-17,7.420061e-17,0,0,0,0,0,0
3.059125,2.005861,-10.61647,1.891618e-12,0,0,1.891618e-12,0,-1.110223e-16,7.633753e-18,0,0,0,0,5.224288e-19,-1.115447e-16,5.603358e-17,48.915028,7.471144e-17,7.453791e-17,0,0,0,0,0,0
3.106415,2.005861,-10.583358,1.891618e-12,0,0,1.891618e-12,-2.220446e-16,0,4.922046e-17,0,0,0,0,1.042153e-17,-2.324661e-16,1.214438e-16,-56.954777,1.619251e-16,1.585655e-16,0,0,0,0,0,0
3.153705,2.005861,-10.54545,1.891618e-12,0,0,1.891618e-12,4.440892e-16,0,1.054483e-17,0,0,0,0,4.443395e-16,-2.502445e-19,2.222949e-16,46.359459,2.963931e-16,2.963098e-16,0,0,0,0,0,0
3.200996,2.005861,-10.503177,1.891618e-12,0,0,1.891618e-12,2.220446e-16,0,-1.488453e-17,0,0,0,0,2.230379e-16,-9.933256e-19,1.120156e-16,41.182003,1.493542e-16,1.490242e-16,0,0,0,0,0,0
3.248286,2.005861,-10.454575,1.891618e-12,0,0,1.891618e-12,2.220446e-16,-1.110223e-16,-9.211954e-19,0,0,0,0,2.220471e-16,-1.110249e-16,1.66536e-16,44.841534,2.22048e-16,1.958278e-16,0,0,0,0,0,0
3.295577,2.005861,-10.395005,1.891618e-12,0,0,1.891618e-12,0,2.220446e-16,8.380453e-18,0,0,0,0,2.223604e-16,-3.158475e-19,1.113382e-16,-47.158375,1.484509e-16,1.483457e-16,0,0,0,0,0,0
3.342867,2.005861,-10.32326,1.891618e-12,0,0,1.891618e-12,-1.110223e-16,0,1.589732e-17,0,0,0,0,2.23149e-18,-1.132538e-16,5.774264e-17,-52.990345,7.699019e-17,7.625724e-17,0,0,0,0,0,0
3.390158,2.005861,-10.247386,1.891618e-12,0,0,1.891618e-12,-2.220446e-16,2.220446e-16,-1.675811e-17,0,0,0,0,2.226761e-16,-2.226761e-16,2.226761e-16,-42.841984,2.969015e-16,2.571242e-16,0,0,0,0,0,0
1.451249,1.958571,-10.058682,1.891618e-12,0,0,1.891618e-12,4.440892e-16,-1.110223e-16,4.013442e-17,0,0,0,0,4.469759e-16,-1.13909e-16,2.804424e-16,49.113956,3.739233e-16,3.423301e-16,0,0,0,0,0,0
1.49854,1.958571,-10.132875,1.891618e-12,0,0,1.891618e-12,2.220446e-16,2.220446e-16,8.293125e-17,0,0,0,0,3.049759e-16,1.391134e-16,8.293125e-17,90,1.10575e-16,1.763035e-16,0,0,0,0,0,0
1.54583,1.958571,-10.233908,1.891618e-12,0,0,1.891618e-12,-1.110223e-16,-1.110223e-16,-2.457991e-18,0,0,0,0,-1.085643e-16,-1.134803e-16,2.457991e-18,0,3.277321e-18,7.406927e-17,0,0,0,0,0,0
1.593121,1.958571,-10.312428,1.891618e-12,0,0,1.891618e-12,-3.330669e-16,2.220446e-16,3.969097e-17,0,0,0,0,2.248682e-16,-3.358905e-16,2.803793e-16,-49.069111,3.738391e-16,3.258624e-16,0,0,0,0,0,0
1.640411,1.958571,-10.376367,1.891618e-12,0,0,1.891618e-12,0,2.220446e-16,-2.047007e-18,0,0,0,0,2.220635e-16,-1.886955e-20,1.110412e-16,-44.471855,1.480549e-16,1.480486e-16,0,0,0,0,0,0
1.687701,1.958571,-10.430355,1.891618e-12,0,0,1.891618e-12,2.220446e-16,0,1.861571e-17,0,0,0,0,2.235945e-16,-1.549881e-18,1.125722e-16,49.759274,1.500962e-16,1.495823e-16,0,0,0,0,0,0
1.734992,1.958571,-10.478462,1.891618e-12,0,0,1.891618e-12,-2.220446e-16,2.220446e-16,1.102309e-17,0,0,0,0,2.22318e-16,-2.22318e-16,2.22318e-16,-46.421017,2.964241e-16,2.567108e-16,0,0,0,0,0,0
1.782282,1.958571,-10.520925,1.891618e-12,0,0,1.891618e-12,0,2.220446e-16,-5.032483e-18,0,0,0,0,2.221586e-16,-1.139991e-19,1.111363e-16,-43.70232,1.481817e-16,1.481437e-16,0,0,0,0,0,0
1.829573,1.958571,-10.55816,1.891618e-12,0,0,1.891618e-12,0,0,1.213533e-17,0,0,0,0,1.213533e-17,-1.213533e-17,1.213533e-17,90,1.618044e-17,1.401267e-17,0,0,0,0,0,0
1.876863,1.958571,-10.591442,1.891618e-12,0,0,1.891618e-12,0,0,-1.419336e-17,0,0,0,0,1.419336e-17,-1.419336e-17,1.419336e-17,0,1.892448e-17,1.638908e-17,0,0,0,0,0,0
1.924154,1.958571,-10.621944,1.891618e-12,0,0,1.891618e-12,-1.110223e-16,0,-3.609945e-17,0,0,0,0,1.07056e-17,-1.217279e-16,6.621675e-17,-28.481825,8.8289e-17,8.494564e-17,0,0,0,0,0,0
1.971444,1.958571,-10.65108,1.891618e-12,0,0,1.891618e-12,-1.110223e-16,0,1.471415e-17,0,0,0,0,1.917014e-18,-1.129393e-16,5.742817e-17,-52.422897,7.657089e-17,7.593995e-17,0,0,0,0,0,0
2.018735,1.958571,-10.679951,1.891618e-12,0,0,1.891618e-12,2.220446e-16,0,-4.960644e-17,0,0,0,0,2.326231e-16,-1.057848e-17,1.216008e-16,32.962093,1.621344e-16,1.587258e-16,0,0,0,0,0,0
2.066025,1.958571,-10.707797,1.891618e-12,0,0,1.891618e-12,0,-1.110223e-16,-4.872357e-17,0,0,0,0,1.835003e-17,-1.293723e-16,7.386118e-17,24.362871,9.848158e-17,9.297051e-17,0,0,0,0,0,0
2.113316,1.958571,-10.732198,1.891618e-12,0,0,1.891618e-12,0,2.220446e-16,-9.231061e-18,0,0,0,0,2.224277e-16,-3.83102e-19,1.114054e-16,-42.623508,1.485405e-16,1.48413e-16,0,0,0,0,0,0
2.160606,1.958571,-10.75094,1.891618e-12,0,0,1.891618e-12,2.220446e-16,2.220446e-16,-2.579735e-17,0,0,0,0,2.478419e-16,1.962473e-16,2.579735e-17,0,3.439646e-17,1.509971e-16,0,0,0,0,0,0
2.207896,1.958571,-10.763917,1.891618e-12,0,0,1.891618e-12,0,-1.110223e-16,-6.613661e-18,0,0,0,0,3.925912e-19,-1.114149e-16,5.590374e-17,41.602871,7.453832e-17,7.440781e-17,0,0,0,0,0,0
2.255187,1.958571,-10.772231,1.891618e-12,0,0,1.891618e-12,2.220446e-16,0,1.550218e-17,0,0,0,0,2.231217e-16,-1.077069e-18,1.120994e-16,48.974442,1.494658e-16,1.491081e-16,0,0,0,0,0,0
2.302477,1.958571,-10.777383,1.891618e-12,0,0,1.891618e-12,0,2.220446e-16,2.542059e-18,0,0,0,0,2.220737e-16,-2.909873e-20,1.110514e-16,-45.65583,1.480685e-16,1.480588e-16,0,0,0,0,0,0
2.349768,1.958571,-10.780512,1.891618e-12,0,0,1.891618e-12,2.220446e-16,-2.220446e-16,1.872222e-17,0,0,0,0,2.228325e-16,-2.228325e-16,2.228325e-16,47.409817,2.9711e-16,2.573048e-16,0,0,0,0,0,0
2.397058,1.958571,-10.782298,1.891618e-12,0,0,1.891618e-12,2.220446e-16,0,6.706885e-17,0,0,0,0,2.407304e-16,-1.868576e-17,1.297081e-16,60.568138,1.729441e-16,1.670642e-16,0,0,0,0,0,0
2.444349,1.958571,-10.78336,1.891618e-12,0,0,1.891618e-12,0,-2.220446e-16,-1.912346e-17,0,0,0,0,1.634959e-18,-2.236796e-16,1.126573e-16,40.113384,1.502097e-16,1.496677e-16,0,0,0,0,0,0
2.491639,1.958571,-10.783768,1.891618e-12,0,0,1.891618e-12,-1.110223e-16,2.220446e-16,-2.16654e-17,0,0,0,0,2.23448e-16,-1.124257e-16,1.679368e-16,-41.293827,2.239158e-16,1.974165e-16,0,0,0,0,0,0
2.53893,1.958571,-10.782486,1.891618e-12,0,0,1.891618e-12,0,-1.110223e-16,1.03779e-17,0,0,0,0,9.617519e-19,-1.119841e-16,5.64729e-17,50.294651,7.529721e-17,7.497867e-17,0,0,0,0,0,0
2.58622,1.958571,-10.778801,1.891618e-12,0,0,1.891618e-12,2.220446e-16,0,1.614947e-17,0,0,0,0,2.23213e-16,-1.168415e-18,1.121907e-16,49.138142,1.495876e-16,1.491997e-16,0,0,0,0,0,0
2.633511,1.958571,-10.773611,1.891618e-12,0,0,1.891618e-12,2.220446e-16,0,-6.400125e-18,0,0,0,0,2.222289e-16,-1.843217e-19,1.112066e-16,43.350353,1.482755e-16,1.482141e-16,0,0,0,0,0,0
2.680801,1.958571,-10.767462,1.891618e-12,0,0,1.891618e-12,2.220446e-16,2.220446e-16,-2.698024e-17,0,0,0,0,2.490249e-16,1.950644e-16,2.698024e-17,0,3.597365e-17,1.512725e-16,0,0,0,0,0,0
2.728091,1.958571,-10.7595,1.891618e-12,0,0,1.891618e-12,-1.110223e-16,0,-8.982093e-18,0,0,0,0,7.219877e-19,-1.117443e-16,5.623314e-17,-40.4044,7.497752e-17,7.473802e-17,0,0,0,0,0,0
2.775382,1.958571,-10.748001,1.891618e-12,0,0,1.891618e-12,2.220446e-16,0,-3.087366e-17,0,0,0,0,2.262574e-16,-4.212823e-18,1.152351e-16,37.229771,1.536468e-16,1.52262e-16,0,0,0,0,0,0
2.822672,1.958571,-10.731992,1.891618e-12,0,0,1.891618e-12,2.220446e-16,2.220446e-16,-7.37012e-17,0,0,0,0,2.957458e-16,1.483434e-16,7.37012e-17,0,9.826827e-17,1.707492e-16,0,0,0,0,0,0
2.869963,1.958571,-10.712076,1.891618e-12,0,0,1.891618e-12,2.220446e-16,0,4.458625e-18,0,0,0,0,2.221341e-16,-8.949252e-20,1.111118e-16,46.149872,1.481491e-16,1.481192e-16,0,0,0,0,0,0
2.917253,1.958571,-10.690987,1.891618e-12,0,0,1.891618e-12,-2.220446e-16,-2.220446e-16,7.651307e-18,0,0,0,0,-2.143933e-16,-2.296959e-16,7.651307e-18,90,1.020174e-17,1.482932e-16,0,0,0,0,0,0
2.964544,1.958571,-10.669505,1.891618e-12,0,0,1.891618e-12,-2.220446e-16,4.440892e-16,6.888699e-17,0,0,0,0,4.511384e-16,-2.290938e-16,3.401161e-16,-50.842754,4.534882e-16,3.996459e-16,0,0,0,0,0,0
3.011834,1.958571,-10.646245,1.891618e-12,0,0,1.891618e-12,-1.110223e-16,2.220446e-16,-5.642462e-17,0,0,0,0,2.313438e-16,-1.203215e-16,1.758327e-16,-35.641335,2.344436e-16,2.063792e-16,0,0,0,0,0,0
3.059125,1.958571,-10.618969,1.891618e-12,0,0,1.891618e-12,-1.110223e-16,2.220446e-16,-8.915268e-19,0,0,0,0,2.22047e-16,-1.110247e-16,1.665358e-16,-44.846638,2.220478e-16,1.958276e-16,0,0,0,0,0,0
3.106415,1.958571,-10.586367,1.891618e-12,0,0,1.891618e-12,-2.220446e-16,0,-1.838175e-17,0,0,0,0,1.511427e-18,-2.23556e-16,1.125337e-16,-40.299465,1.50045e-16,1.495437e-16,0,0,0,0,0,0
3.153705,1.958571,-10.54824,1.891618e-12,0,0,1.891618e-12,2.220446e-16,-1.110223e-16,7.202643e-18,0,0,0,0,2.222003e-16,-1.11178e-16,1.666891e-16,46.238262,2.222522e-16,1.960015e-16,0,0,0,0,0,0
3.200996,1.958571,-10.505219,1.891618e-12,0,0,1.891618e-12,0,0,-1.838818e-17,0,0,0,0,1.838818e-17,-1.838818e-17,1.838818e-17,0,2.451758e-17,2.123284e-17,0,0,0,0,0,0
3.248286,1.958571,-10.455045,1.891618e-12,0,0,1.891618e-12,2.220446e-16,-1.110223e-16,6.521659e-18,0,0,0,0,2.221722e-16,-1.1115e-16,1.666611e-16,46.121315,2.222148e-16,1.959697e-16,0,0,0,0,0,0
3.295577,1.958571,-10.395646,1.891618e-12,0,0,1.891618e-12,-1.110223e-16,2.220446e-16,3.942493e-17,0,0,0,0,2.266477e-16,-1.156254e-16,1.711365e-16,-51.659462,2.28182e-16,2.010469e-16,0,0,0,0,0,0
3.342867,1.958571,-10.323816,1.891618e-12,0,0,1.891618e-12,2.220446e-16,4.440892e-16,-2.500083e-17,0,0,0,0,4.468693e-16,2.192645e-16,1.138024e-16,-38.654697,1.517366e-16,2.580151e-16,0,0,0,0,0,0
3.390158,1.958571,-10.248391,1.891618e-12,0,0,1.891618e-12,0,0,-1.373139e-17,0,0,0,0,1.373139e-17,-1.373139e-17,1.373139e-17,0,1.830851e-17,1.585564e-17,0,0,0,0,0,0
1.451249,1.91128,-10.062386,1.891618e-12,0,0,1.891618e-12,2.220446e-16,2.220446e-16,-5.635646e-20,0,0,0,0,2.22101e-16,2.219883e-16,5.635646e-20,0,7.514195e-20,1.480298e-16,0,0,0,0,0,0
1.49854,1.91128,-10.134398,1.891618e-12,0,0,1.891618e-12,-1.110223e-16,2.220446e-16,9.233034e-19,0,0,0,0,2.220472e-16,-1.110249e-16,1.66536e-16,-45.158829,2.22048e-16,1.958278e-16,0,0,0,0,0,0
1.54583,1.91128,-10.233628,1.891618e-12,0,0,1.891618e-12,-2.220446e-16,0,-2.48071e-17,0,0,0,0,2.737725e-18,-2.247823e-16,1.1376e-16,-38.702293,1.5168e-16,1.507757e-16,0,0,0,0,0,0
1.593121,1.91128,-10.312431,1.891618e-12,0,0,1.891618e-12,-1.110223e-16,2.220446e-16,-1.742171e-17,0,0,0,0,2.229534e-16,-1.119311e-16,1.674423e-16,-42.013897,2.232563e-16,1.968555e-16,0,0,0,0,0,0
1.640411,1.91128,-10.377861,1.891618e-12,0,0,1.891618e-12,0,2.220446e-16,-1.014661e-17,0,0,0,0,2.225073e-16,-4.626979e-19,1.11485e-16,-42.38905,1.486467e-16,1.484927e-16,0,0,0,0,0,0
1.687701,1.91128,-10.433401,1.891618e-12,0,0,1.891618e-12,2.220446e-16,0,-2.724238e-17,0,0,0,0,2.253381e-16,-3.293484e-18,1.143158e-16,38.106647,1.524211e-16,1.513352e-16,0,0,0,0,0,0
1.734992,1.91128,-10.482102,1.891618e-12,0,0,1.891618e-12,0,0,-1.199243e-17,0,0,0,0,1.199243e-17,-1.199243e-17,1.199243e-17,0,1.59899e-17,1.384766e-17,0,0,0,0,0,0
1.782282,1.91128,-10.524509,1.891618e-12,0,0,1.891618e-12,-2.220446e-16,0,-4.4629e-17,0,0,0,0,8.634287e-18,-2.306789e-16,1.196566e-16,-34.050373,1.595421e-16,1.567433e-16,0,0,0,0,0,0
1.829573,1.91128,-10.561163,1.891618e-12,0,0,1.891618e-12,-2.220446e-16,4.440892e-16,-9.28508e-18,0,0,0,0,4.442186e-16,-2.22174e-16,3.331963e-16,-44.201576,4.442617e-16,3.917966e-16,0,0,0,0,0,0
1.876863,1.91128,-10.593579,1.891618e-12,0,0,1.891618e-12,0,2.220446e-16,7.075715e-18,0,0,0,0,2.222699e-16,-2.252475e-19,1.112475e-16,-46.823334,1.483301e-16,1.48255e-16,0,0,0,0,0,0
1.924154,1.91128,-10.622988,1.891618e-12,0,0,1.891618e-12,-1.110223e-16,-1.110223e-16,2.685738e-17,0,0,0,0,-8.416492e-17,-1.378797e-16,2.685738e-17,90,3.580984e-17,8.024936e-17,0,0,0,0,0,0
1.971444,1.91128,-10.651253,1.891618e-12,0,0,1.891618e-12,-2.220446e-16,2.220446e-16,2.737123e-17,0,0,0,0,2.237253e-16,-2.237253e-16,2.237253e-16,-48.513672,2.983003e-16,2.583357e-16,0,0,0,0,0,0
2.018735,1.91128,-10.67998,1.891618e-12,0,0,1.891618e-12,2.220446e-16,0,-1.680021e-17,0,0,0,0,2.233085e-16,-1.263932e-18,1.122862e-16,40.697563,1.49715e-16,1.492954e-16,0,0,0,0,0,0
2.066025,1.91128,-10.708389,1.891618e-12,0,0,1.891618e-12,4.440892e-16,2.220446e-16,-1.73794e-18,0,0,0,0,4.441028e-16,2.22031e-16,1.110359e-16,44.551582,1.480479e-16,2.564029e-16,0,0,0,0,0,0
2.113316,1.91128,-10.73362,1.891618e-12,0,0,1.891618e-12,-2.220446e-16,2.220446e-16,-4.879949e-17,0,0,0,0,2.273438e-16,-2.273438e-16,2.273438e-16,-38.802483,3.03125e-16,2.62514e-16,0,0,0,0,0,0
2.160606,1.91128,-10.752857,1.891618e-12,0,0,1.891618e-12,0,0,3.467213e-17,0,0,0,0,3.467213e-17,-3.467213e-17,3.467213e-17,90,4.622951e-17,4.003593e-17,0,0,0,0,0,0
2.207896,1.91128,-10.765902,1.891618e-12,0,0,1.891618e-12,0,-1.110223e-16,-1.52747e-18,0,0,0,0,2.10113e-20,-1.110433e-16,5.553216e-17,44.21191,7.404288e-17,7.403588e-17,0,0,0,0,0,0
2.255187,1.91128,-10.774181,1.891618e-12,0,0,1.891618e-12,-1.110223e-16,2.220446e-16,-4.331334e-17,0,0,0,0,2.275851e-16,-1.165628e-16,1.720739e-16,-37.710533,2.294319e-16,2.021109e-16,0,0,0,0,0,0
2.302477,1.91128,-10.7797,1.891618e-12,0,0,1.891618e-12,-1.110223e-16,2.220446e-16,-2.976909e-17,0,0,0,0,2.246844e-16,-1.136621e-16,1.691733e-16,-39.932503,2.255643e-16,1.98819e-16,0,0,0,0,0,0
2.349768,1.91128,-10.783742,1.891618e-12,0,0,1.891618e-12,2.220446e-16,-1.110223e-16,-1.35278e-17,0,0,0,0,2.225931e-16,-1.115708e-16,1.67082e-16,42.677979,2.22776e-16,1.96447e-16,0,0,0,0,0,0
2.397058,1.91128,-10.786324,1.891618e-12,0,0,1.891618e-12,0,-2.220446e-16,-4.784047e-17,0,0,0,0,9.868814e-18,-2.319134e-16,1.208911e-16,33.344185,1.611882e-16,1.580013e-16,0,0,0,0,0,0
2.444349,1.91128,-10.787438,1.891618e-12,0,0,1.891618e-12,0,-1.110223e-16,5.64973e-18,0,0,0,0,2.867641e-19,-1.113091e-16,5.579792e-17,47.905678,7.439722e-17,7.430182e-17,0,0,0,0,0,0
2.491639,1.91128,-10.787284,1.891618e-12,0,0,1.891618e-12,-1.110223e-16,2.220446e-16,2.114223e-18,0,0,0,0,2.22058e-16,-1.110357e-16,1.665469e-16,-45.363678,2.220625e-16,1.958401e-16,0,0,0,0,0,0
2.53893,1.91128,-10.785225,1.891618e-12,0,0,1.891618e-12,0,2.220446e-16,-1.751915e-17,0,0,0,0,2.234184e-16,-1.373748e-18,1.12396e-16,-40.516376,1.498614e-16,1.494056e-16,0,0,0,0,0,0
2.58622,1.91128,-10.78121,1.891618e-12,0,0,1.891618e-12,2.220446e-16,-2.220446e-16,2.789743e-17,0,0,0,0,2.237902e-16,-2.237902e-16,2.237902e-16,48.580528,2.98387e-16,2.584107e-16,0,0,0,0,0,0
2.633511,1.91128,-10.77627,1.891618e-12,0,0,1.891618e-12,2.220446e-16,2.220446e-16,-3.16591e-17,0,0,0,0,2.537037e-16,1.903855e-16,3.16591e-17,0,4.221214e-17,1.524769e-16,0,0,0,0,0,0
2.680801,1.91128,-10.770416,1.891618e-12,0,0,1.891618e-12,-1.110223e-16,2.220446e-16,-4.004631e-17,0,0,0,0,2.267919e-16,-1.157696e-16,1.712808e-16,-38.239403,2.283743e-16,2.012105e-16,0,0,0,0,0,0
2.728091,1.91128,-10.762706,1.891618e-12,0,0,1.891618e-12,-3.330669e-16,2.220446e-16,1.97662e-18,0,0,0,0,2.220516e-16,-3.330739e-16,2.775628e-16,-45.204014,3.700837e-16,3.226314e-16,0,0,0,0,0,0
2.775382,1.91128,-10.751128,1.891618e-12,0,0,1.891618e-12,-2.220446e-16,-2.220446e-16,8.609606e-18,0,0,0,0,-2.13435e-16,-2.306542e-16,8.609606e-18,90,1.147947e-17,1.483632e-16,0,0,0,0,0,0
2.822672,1.91128,-10.734731,1.891618e-12,0,0,1.891618e-12,-1.110223e-16,-2.220446e-16,-1.296986e-17,0,0,0,0,-1.095273e-16,-2.235396e-16,5.700618e-17,38.424545,7.600824e-17,1.290693e-16,0,0,0,0,0,0
2.869963,1.91128,-10.713999,1.891618e-12,0,0,1.891618e-12,-1.110223e-16,-1.110223e-16,2.528654e-17,0,0,0,0,-8.573577e-17,-1.363088e-16,2.528654e-17,90,3.371538e-17,7.956599e-17,0,0,0,0,0,0
2.917253,1.91128,-10.692107,1.891618e-12,0,0,1.891618e-12,2.220446e-16,0,3.179207e-17,0,0,0,0,2.265069e-16,-4.462273e-18,1.154846e-16,52.989731,1.539794e-16,1.525138e-16,0,0,0,0,0,0
2.964544,1.91128,-10.67023,1.891618e-12,0,0,1.891618e-12,-1.110223e-16,-2.220446e-16,2.541535e-18,0,0,0,0,-1.109642e-16,-2.221028e-16,5.55693e-17,46.310707,7.40924e-17,1.282311e-16,0,0,0,0,0,0
3.011834,1.91128,-10.64747,1.891618e-12,0,0,1.891618e-12,2.220446e-16,4.440892e-16,6.551399e-18,0,0,0,0,4.442823e-16,2.218515e-16,1.112154e-16,-46.688545,1.482872e-16,2.565066e-16,0,0,0,0,0,0
3.059125,1.91128,-10.621379,1.891618e-12,0,0,1.891618e-12,-1.110223e-16,2.220446e-16,5.625078e-17,0,0,0,0,2.312881e-16,-1.202658e-16,1.75777e-16,-54.331833,2.343693e-16,2.063159e-16,0,0,0,0,0,0
3.106415,1.91128,-10.590006,1.891618e-12,0,0,1.891618e-12,2.220446e-16,0,1.632595e-17,0,0,0,0,2.232386e-16,-1.193955e-18,1.122163e-16,49.182728,1.496217e-16,1.492253e-16,0,0,0,0,0,0
3.153705,1.91128,-10.552509,1.891618e-12,0,0,1.891618e-12,2.220446e-16,-2.220446e-16,3.131284e-17,0,0,0,0,2.242416e-16,-2.242416e-16,2.242416e-16,49.013474,2.989888e-16,2.589319e-16,0,0,0,0,0,0
3.200996,1.91128,-10.509353,1.891618e-12,0,0,1.891618e-12,2.220446e-16,-1.110223e-16,-2.469003e-17,0,0,0,0,2.238649e-16,-1.128426e-16,1.683538e-16,40.783417,2.244717e-16,1.978894e-16,0,0,0,0,0,0
3.248286,1.91128,-10.458281,1.891618e-12,0,0,1.891618e-12,-3.330669e-16,2.220446e-16,4.150053e-17,0,0,0,0,2.251301e-16,-3.361524e-16,2.806412e-16,-49.251972,3.741883e-16,3.261628e-16,0,0,0,0,0,0
3.295577,1.91128,-10.399613,1.891618e-12,0,0,1.891618e-12,-3.330669e-16,2.220446e-16,-2.653481e-17,0,0,0,0,2.233101e-16,-3.343324e-16,2.788212e-16,-42.269512,3.717617e-16,3.24075e-16,0,0,0,0,0,0
3.342867,1.91128,-10.328599,1.891618e-12,0,0,1.891618e-12,-1.110223e-16,2.220446e-16,6.294659e-17,0,0,0,0,2.335439e-16,-1.225216e-16,1.780328e-16,-55.352837,2.37377e-16,2.08879e-16,0,0,0,0,0,0
3.390158,1.91128,-10.254617,1.891618e-12,0,0,1.891618e-12,2.220446e-16,0,-4.120744e-17,0,0,0,0,2.294453e-16,-7.400691e-18,1.18423e-16,34.818451,1.578973e-16,1.554891e-16,0,0,0,0,0,0
1.451249,1.86399,-10.065375,1.891618e-12,0,0,1.891618e-12,-2.220446e-16,-3.330669e-16,-3.913842e-18,0,0,0,0,-2.219068e-16,-3.332047e-16,5.564895e-17,42.983501,7.41986e-17,1.958771e-16,0,0,0,0,0,0
1.49854,1.86399,-10.135923,1.891618e-12,0,0,1.891618e-12,-2.220446e-16,0,2.795617e-17,0,0,0,0,3.465683e-18,-2.255103e-16,1.14488e-16,-52.066814,1.526506e-16,1.515086e-16,0,0,0,0,0,0
1.54583,1.86399,-10.234136,1.891618e-12,0,0,1.891618e-12,2.220446e-16,-1.110223e-16,-1.709917e-17,0,0,0,0,2.229201e-16,-1.118978e-16,1.67409e-16,42.06879,2.23212e-16,1.968178e-16,0,0,0,0,0,0
1.593121,1.86399,-10.31365,1.891618e-12,0,0,1.891618e-12,0,0,5.791802e-17,0,0,0,0,5.791802e-17,-5.791802e-17,5.791802e-17,90,7.722402e-17,6.687796e-17,0,0,0,0,0,0
1.640411,1.86399,-10.380235,1.891618e-12,0,0,1.891618e-12,2.220446e-16,-2.220446e-16,9.589186e-18,0,0,0,0,2.222516e-16,-2.222516e-16,2.222516e-16,46.236416,2.963354e-16,2.56634e-16,0,0,0,0,0,0
1.687701,1.86399,-10.43687,1.891618e-12,0,0,1.891618e-12,0,0,-1.825846e-17,0,0,0,0,1.825846e-17,-1.825846e-17,1.825846e-17,0,2.434461e-17,2.108305e-17,0,0,0,0,0,0
1.734992,1.86399,-10.485678,1.891618e-12,0,0,1.891618e-12,0,-2.220446e-16,-9.917521e-18,0,0,0,0,4.420814e-19,-2.224867e-16,1.114644e-16,42.447685,1.486192e-16,1.48472e-16,0,0,0,0,0,0
1.782282,1.86399,-10.527588,1.891618e-12,0,0,1.891618e-12,-2.220446e-16,-4.440892e-16,-1.470288e-17,0,0,0,0,-2.210753e-16,-4.450585e-16,1.119916e-16,41.228058,1.493222e-16,2.569565e-16,0,0,0,0,0,0
1.829573,1.86399,-10.563446,1.891618e-12,0,0,1.891618e-12,0,0,1.917806e-17,0,0,0,0,1.917806e-17,-1.917806e-17,1.917806e-17,90,2.557075e-17,2.214492e-17,0,0,0,0,0,0
1.876863,1.86399,-10.594751,1.891618e-12,0,0,1.891618e-12,0,-1.110223e-16,1.069397e-19,0,0,0,0,1.030071e-22,-1.110224e-16,5.551126e-17,45.055187,7.4015e-17,7.401497e-17,0,0,0,0,0,0
1.924154,1.86399,-10.623068,1.891618e-12,0,0,1.891618e-12,0,0,5.381788e-18,0,0,0,0,5.381788e-18,-5.381788e-18,5.381788e-18,90,7.175717e-18,6.214354e-18,0,0,0,0,0,0
1.971444,1.86399,-10.650339,1.891618e-12,0,0,1.891618e-12,-2.220446e-16,-1.110223e-16,2.036648e-17,0,0,0,0,-1.074041e-16,-2.256628e-16,5.912936e-17,-55.073788,7.883915e-17,1.303367e-16,0,0,0,0,0,0
2.018735,1.86399,-10.678506,1.891618e-12,0,0,1.891618e-12,2.220446e-16,0,1.925002e-17,0,0,0,0,2.237011e-16,-1.65651e-18,1.126788e-16,49.918324,1.502384e-16,1.496893e-16,0,0,0,0,0,0
2.066025,1.86399,-10.706637,1.891618e-12,0,0,1.891618e-12,2.220446e-16,0,-1.957896e-17,0,0,0,0,2.237578e-16,-1.713173e-18,1.127355e-16,39.999313,1.50314e-16,1.497462e-16,0,0,0,0,0,0
2.113316,1.86399,-10.731906,1.891618e-12,0,0,1.891618e-12,-1.110223e-16,2.220446e-16,1.767805e-17,0,0,0,0,2.229803e-16,-1.11958e-16,1.674691e-16,-48.029716,2.232922e-16,1.96886e-16,0,0,0,0,0,0
2.160606,1.86399,-10.751178,1.891618e-12,0,0,1.891618e-12,-1.110223e-16,-1.110223e-16,-9.197479e-18,0,0,0,0,-1.018248e-16,-1.202198e-16,9.197479e-18,0,1.22633e-17,7.477294e-17,0,0,0,0,0,0
2.207896,1.86399,-10.76401,1.891618e-12,0,0,1.891618e-12,2.220446e-16,0,-4.36254e-17,0,0,0,0,2.303082e-16,-8.263602e-18,1.192859e-16,34.27401,1.590479e-16,1.563661e-16,0,0,0,0,0,0
2.255187,1.86399,-10.772257,1.891618e-12,0,0,1.891618e-12,0,-2.220446e-16,-6.652453e-17,0,0,0,0,1.840515e-17,-2.404498e-16,1.294275e-16,29.534986,1.725699e-16,1.667738e-16,0,0,0,0,0,0
2.302477,1.86399,-10.778581,1.891618e-12,0,0,1.891618e-12,4.440892e-16,0,2.675775e-17,0,0,0,0,4.456957e-16,-1.606427e-18,2.23651e-16,48.43568,2.982014e-16,2.976673e-16,0,0,0,0,0,0
2.349768,1.86399,-10.784247,1.891618e-12,0,0,1.891618e-12,-4.440892e-16,2.220446e-16,-2.279794e-17,0,0,0,0,2.228239e-16,-4.448685e-16,3.338462e-16,-43.042149,4.451283e-16,3.925336e-16,0,0,0,0,0,0
2.397058,1.86399,-10.788836,1.891618e-12,0,0,1.891618e-12,0,2.220446e-16,-2.498416e-17,0,0,0,0,2.248211e-16,-2.776467e-18,1.137988e-16,-38.658791,1.517317e-16,1.508147e-16,0,0,0,0,0,0
2.444349,1.86399,-10.791047,1.891618e-12,0,0,1.891618e-12,-1.110223e-16,0,-5.247833e-17,0,0,0,0,2.087905e-17,-1.319013e-16,7.63902e-17,-23.30435,1.018536e-16,9.56565e-17,0,0,0,0,0,0
2.491639,1.86399,-10.790988,1.891618e-12,0,0,1.891618e-12,2.220446e-16,2.220446e-16,3.346965e-17,0,0,0,0,2.555143e-16,1.88575e-16,3.346965e-17,90,4.46262e-17,1.529916e-16,0,0,0,0,0,0
2.53893,1.86399,-10.788942,1.891618e-12,0,0,1.891618e-12,0,0,1.094655e-17,0,0,0,0,1.094655e-17,-1.094655e-17,1.094655e-17,90,1.459539e-17,1.263998e-17,0,0,0,0,0,0
2.58622,1.86399,-10.785118,1.891618e-12,0,0,1.891618e-12,-2.220446e-16,-1.110223e-16,-1.113206e-17,0,0,0,0,-1.099171e-16,-2.231498e-16,5.661634e-17,-39.330235,7.548846e-17,1.288403e-16,0,0,0,0,0,0
2.633511,1.86399,-10.780687,1.891618e-12,0,0,1.891618e-12,2.220446e-16,-2.220446e-16,4.852463e-17,0,0,0,0,2.272849e-16,-2.272849e-16,2.272849e-16,51.163681,3.030466e-16,2.62446e-16,0,0,0,0,0,0
2.680801,1.86399,-10.775271,1.891618e-12,0,0,1.891618e-12,0,0,-1.327592e-17,0,0,0,0,1.327592e-17,-1.327592e-17,1.327592e-17,0,1.770122e-17,1.532971e-17,0,0,0,0,0,0
2.728091,1.86399,-10.767642,1.891618e-12,0,0,1.891618e-12,2.220446e-16,2.220446e-16,-8.3929e-18,0,0,0,0,2.304375e-16,2.136517e-16,8.3929e-18,0,1.119053e-17,1.483466e-16,0,0,0,0,0,0
2.775382,1.86399,-10.755725,1.891618e-12,0,0,1.891618e-12,2.220446e-16,2.220446e-16,-1.35417e-17,0,0,0,0,2.355863e-16,2.085029e-16,1.35417e-17,0,1.80556e-17,1.488533e-16,0,0,0,0,0,0
2.822672,1.86399,-10.73849,1.891618e-12,0,0,1.891618e-12,-2.220446e-16,2.220446e-16,1.760434e-17,0,0,0,0,2.227414e-16,-2.227414e-16,2.227414e-16,-47.266548,2.969885e-16,2.571996e-16,0,0,0,0,0,0
2.869963,1.86399,-10.716553,1.891618e-12,0,0,1.891618e-12,2.220446e-16,0,3.171807e-17,0,0,0,0,2.264865e-16,-4.441923e-18,1.154642e-16,52.97208,1.539523e-16,1.524932e-16,0,0,0,0,0,0
2.917253,1.86399,-10.693455,1.891618e-12,0,0,1.891618e-12,0,0,4.183581e-17,0,0,0,0,4.183581e-17,-4.183581e-17,4.183581e-17,90,5.578109e-17,4.830784e-17,0,0,0,0,0,0
2.964544,1.86399,-10.670945,1.891618e-12,0,0,1.891618e-12,0,-1.110223e-16,2.386078e-17,0,0,0,0,4.910905e-18,-1.159332e-16,6.042206e-17,56.629929,8.056274e-17,7.897668e-17,0,0,0,0,0,0
3.011834,1.86399,-10.648395,1.891618e-12,0,0,1.891618e-12,2.220446e-16,2.220446e-16,2.033492e-17,0,0,0,0,2.423795e-16,2.017097e-16,2.033492e-17,90,2.711322e-17,1.498804e-16,0,0,0,0,0,0
3.059125,1.86399,-10.62324,1.891618e-12,0,0,1.891618e-12,-1.110223e-16,2.220446e-16,5.585423e-17,0,0,0,0,2.311616e-16,-1.201393e-16,1.756505e-16,-54.270557,2.342006e-16,2.061723e-16,0,0,0,0,0,0
3.106415,1.86399,-10.593088,1.891618e-12,0,0,1.891618e-12,-2.220446e-16,0,-7.730923e-18,0,0,0,0,2.688419e-19,-2.223135e-16,1.112911e-16,-43.00835,1.483882e-16,1.482987e-16,0,0,0,0,0,0
3.153705,1.86399,-10.55633,1.891618e-12,0,0,1.891618e-12,-2.220446e-16,-1.110223e-16,1.52202e-18,0,0,0,0,-1.110014e-16,-2.220655e-16,5.553202e-17,-45.785278,7.404268e-17,1.282096e-16,0,0,0,0,0,0
3.200996,1.86399,-10.513722,1.891618e-12,0,0,1.891618e-12,2.220446e-16,-2.220446e-16,1.562803e-17,0,0,0,0,2.225939e-16,-2.225939e-16,2.225939e-16,47.012989,2.967918e-16,2.570293e-16,0,0,0,0,0,0
3.248286,1.86399,-10.463786,1.891618e-12,0,0,1.891618e-12,2.220446e-16,-2.220446e-16,-8.665727e-18,0,0,0,0,2.222136e-16,-2.222136e-16,2.222136e-16,43.882526,2.962848e-16,2.565902e-16,0,0,0,0,0,0
3.295577,1.86399,-10.406539,1.891618e-12,0,0,1.891618e-12,0,-1.110223e-16,-2.07935e-17,0,0,0,0,3.766648e-18,-1.14789e-16,5.92778e-17,34.732468,7.903707e-17,7.781191e-17,0,0,0,0,0,0
3.342867,1.86399,-10.337826,1.891618e-12,0,0,1.891618e-12,2.220446e-16,2.220446e-16,-1.489482e-17,0,0,0,0,2.369394e-16,2.071498e-16,1.489482e-17,0,1.985976e-17,1.490255e-16,0,0,0,0,0,0
3.390158,1.86399,-10.266922,1.891618e-12,0,0,1.891618e-12,-7.771561e-16,-3.330669e-16,8.052192e-17,0,0,0,0,-3.189175e-16,-7.913055e-16,2.36194e-16,-54.966297,3.149253e-16,4.597156e-16,0,0,0,0,0,0
1.451249,1.816699,-10.06745,1.891618e-12,0,0,1.891618e-12,-2.220446e-16,-1.110223e-16,-1.186424e-17,0,0,0,0,-1.097686e-16,-2.232983e-16,5.676485e-17,-38.967922,7.568646e-17,1.289274e-16,0,0,0,0,0,0
1.49854,1.816699,-10.137442,1.891618e-12,0,0,1.891618e-12,4.440892e-16,-1.110223e-16,-1.192917e-17,0,0,0,0,4.443454e-16,-1.112785e-16,2.77812e-16,43.769489,3.70416e-16,3.394583e-16,0,0,0,0,0,0
1.54583,1.816699,-10.235261,1.891618e-12,0,0,1.891618e-12,2.220446e-16,2.220446e-16,4.069119e-17,0,0,0,0,2.627358e-16,1.813534e-16,4.069119e-17,90,5.425492e-17,1.553078e-16,0,0,0,0,0,0
1.593121,1.816699,-10.315665,1.891618e-12,0,0,1.891618e-12,2.220446e-16,-2.220446e-16,1.730197e-17,0,0,0,0,2.227177e-16,-2.227177e-16,2.227177e-16,47.227776,2.969569e-16,2.571722e-16,0,0,0,0,0,0
1.640411,1.816699,-10.383159,1.891618e-12,0,0,1.891618e-12,2.220446e-16,-1.110223e-16,3.078572e-18,0,0,0,0,2.220731e-16,-1.110508e-16,1.665619e-16,45.52953,2.220825e-16,1.958572e-16,0,0,0,0,0,0
1.687701,1.816699,-10.440435,1.891618e-12,0,0,1.891618e-12,0,2.220446e-16,-4.773552e-17,0,0,0,0,2.318719e-16,-9.82732e-18,1.208496e-16,-33.367035,1.611328e-16,1.57959e-16,0,0,0,0,0,0
1.734992,1.816699,-10.489143,1.891618e-12,0,0,1.891618e-12,0,2.220446e-16,7.306159e-20,0,0,0,0,2.220446e-16,-2.40402e-23,1.110223e-16,-45.018852,1.480298e-16,1.480298e-16,0,0,0,0,0,0
1.782282,1.816699,-10.53055,1.891618e-12,0,0,1.891618e-12,-2.220446e-16,0,3.723849e-18,0,0,0,0,6.243409e-20,-2.22107e-16,1.110847e-16,-45.960533,1.48113e-16,1.480922e-16,0,0,0,0,0,0
1.829573,1.816699,-10.566035,1.891618e-12,0,0,1.891618e-12,-2.220446e-16,2.220446e-16,2.342179e-17,0,0,0,0,2.232765e-16,-2.232765e-16,2.232765e-16,-48.010715,2.97702e-16,2.578175e-16,0,0,0,0,0,0
1.876863,1.816699,-10.596874,1.891618e-12,0,0,1.891618e-12,2.220446e-16,2.220446e-16,2.997146e-17,0,0,0,0,2.520161e-16,1.920732e-16,2.997146e-17,90,3.996195e-17,1.520214e-16,0,0,0,0,0,0
1.924154,1.816699,-10.624441,1.891618e-12,0,0,1.891618e-12,0,-1.110223e-16,2.358216e-17,0,0,0,0,4.801421e-18,-1.158237e-16,6.031257e-17,56.508343,8.041677e-17,7.886502e-17,0,0,0,0,0,0
1.971444,1.816699,-10.650469,1.891618e-12,0,0,1.891618e-12,2.220446e-16,-1.110223e-16,2.389583e-17,0,0,0,0,2.237503e-16,-1.12728e-16,1.682391e-16,49.082806,2.243188e-16,1.977593e-16,0,0,0,0,0,0
2.018735,1.816699,-10.67745,1.891618e-12,0,0,1.891618e-12,2.220446e-16,-1.110223e-16,-2.948481e-17,0,0,0,0,2.246346e-16,-1.136123e-16,1.691235e-16,39.979904,2.25498e-16,1.987625e-16,0,0,0,0,0,0
2.066025,1.816699,-10.705027,1.891618e-12,0,0,1.891618e-12,-1.110223e-16,-1.110223e-16,4.102902e-17,0,0,0,0,-6.999328e-17,-1.520513e-16,4.102902e-17,90,5.470536e-17,8.787894e-17,0,0,0,0,0,0
2.113316,1.816699,-10.730004,1.891618e-12,0,0,1.891618e-12,2.220446e-16,-1.110223e-16,-1.074808e-18,0,0,0,0,2.220481e-16,-1.110258e-16,1.665369e-16,44.815109,2.220492e-16,1.958289e-16,0,0,0,0,0,0
2.160606,1.816699,-10.748646,1.891618e-12,0,0,1.891618e-12,0,-2.220446e-16,-2.117074e-17,0,0,0,0,2.000491e-18,-2.240451e-16,1.130228e-16,39.601967,1.506971e-16,1.500347e-16,0,0,0,0,0,0
2.207896,1.816699,-10.760431,1.891618e-12,0,0,1.891618e-12,2.220446e-16,0,5.096443e-18,0,0,0,0,2.221615e-16,-1.169137e-19,1.111392e-16,46.314148,1.481856e-16,1.481467e-16,0,0,0,0,0,0
2.255187,1.816699,-10.76807,1.891618e-12,0,0,1.891618e-12,2.220446e-16,2.220446e-16,1.807126e-17,0,0,0,0,2.401159e-16,2.039733e-16,1.807126e-17,90,2.409502e-17,1.494932e-16,0,0,0,0,0,0
2.302477,1.816699,-10.775235,1.891618e-12,0,0,1.891618e-12,-1.110223e-16,4.440892e-16,2.428964e-17,0,0,0,0,4.4515e-16,-1.120831e-16,2.786166e-16,-47.500683,3.714887e-16,3.403364e-16,0,0,0,0,0,0
2.349768,1.816699,-10.783055,1.891618e-12,0,0,1.891618e-12,-1.110223e-16,0,-2.529623e-17,0,0,0,0,5.492023e-18,-1.165143e-16,6.100317e-17,-32.750706,8.133757e-17,7.95701e-17,0,0,0,0,0,0
2.397058,1.816699,-10.79005,1.891618e-12,0,0,1.891618e-12,2.220446e-16,0,1.61704e-17,0,0,0,0,2.23216e-16,-1.17143e-18,1.121937e-16,49.143433,1.495916e-16,1.492027e-16,0,0,0,0,0,0
2.444349,1.816699,-10.793826,1.891618e-12,0,0,1.891618e-12,2.220446e-16,-1.110223e-16,7.112644e-18,0,0,0,0,2.221964e-16,-1.111741e-16,1.666853e-16,46.222809,2.22247e-16,1.959971e-16,0,0,0,0,0,0
2.491639,1.816699,-10.794183,1.891618e-12,0,0,1.891618e-12,2.220446e-16,0,7.511747e-19,0,0,0,0,2.220471e-16,-2.541188e-21,1.110248e-16,45.193829,1.480331e-16,1.480323e-16,0,0,0,0,0,0
2.53893,1.816699,-10.792237,1.891618e-12,0,0,1.891618e-12,0,2.220446e-16,7.141512e-18,0,0,0,0,2.22274e-16,-2.294518e-19,1.112518e-16,-46.84024,1.483357e-16,1.482592e-16,0,0,0,0,0,0
2.58622,1.816699,-10.788663,1.891618e-12,0,0,1.891618e-12,0,2.220446e-16,1.031326e-17,0,0,0,0,2.225226e-16,-4.779885e-19,1.115003e-16,-47.653587,1.486671e-16,1.48508e-16,0,0,0,0,0,0
2.633511,1.816699,-10.784675,1.891618e-12,0,0,1.891618e-12,2.220446e-16,0,8.24186e-18,0,0,0,0,2.223501e-16,-3.055013e-19,1.113278e-16,47.122814,1.484371e-16,1.483353e-16,0,0,0,0,0,0
2.680801,1.816699,-10.779824,1.891618e-12,0,0,1.891618e-12,-2.220446e-16,-1.110223e-16,-7.58102e-19,0,0,0,0,-1.110171e-16,-2.220498e-16,5.551633e-17,-44.608788,7.402177e-17,1.282005e-16,0,0,0,0,0,0
2.728091,1.816699,-10.772327,1.891618e-12,0,0,1.891618e-12,0,0,2.087045e-17,0,0,0,0,2.087045e-17,-2.087045e-17,2.087045e-17,90,2.782727e-17,2.409912e-17,0,0,0,0,0,0
2.775382,1.816699,-10.76021,1.891618e-12,0,0,1.891618e-12,-1.110223e-16,0,-1.039955e-17,0,0,0,0,9.657337e-19,-1.11988e-16,5.647689e-17,-39.694557,7.530251e-17,7.498267e-17,0,0,0,0,0,0
2.822672,1.816699,-10.742369,1.891618e-12,0,0,1.891618e-12,-1.110223e-16,0,1.394276e-17,0,0,0,0,1.724227e-18,-1.127465e-16,5.723538e-17,-52.049671,7.631384e-17,7.574564e-17,0,0,0,0,0,0
2.869963,1.816699,-10.719691,1.891618e-12,0,0,1.891618e-12,2.220446e-16,0,1.27324e-18,0,0,0,0,2.220519e-16,-7.300724e-21,1.110296e-16,45.328529,1.480395e-16,1.48037e-16,0,0,0,0,0,0
2.917253,1.816699,-10.695787,1.891618e-12,0,0,1.891618e-12,4.440892e-16,-2.220446e-16,-1.999718e-17,0,0,0,0,4.44689e-16,-2.226444e-16,3.336667e-16,43.282055,4.448889e-16,3.9233e-16,0,0,0,0,0,0
2.964544,1.816699,-10.672807,1.891618e-12,0,0,1.891618e-12,2.220446e-16,-1.110223e-16,-2.580155e-17,0,0,0,0,2.240315e-16,-1.130092e-16,1.685204e-16,40.596504,2.246938e-16,1.980784e-16,0,0,0,0,0,0
3.011834,1.816699,-10.650207,1.891618e-12,0,0,1.891618e-12,-1.110223e-16,-1.110223e-16,2.816148e-18,0,0,0,0,-1.082062e-16,-1.138384e-16,2.816148e-18,90,3.754864e-18,7.408627e-17,0,0,0,0,0,0
3.059125,1.816699,-10.625372,1.891618e-12,0,0,1.891618e-12,2.220446e-16,-1.110223e-16,-3.040452e-17,0,0,0,0,2.247974e-16,-1.137751e-16,1.692862e-16,39.826645,2.25715e-16,1.989472e-16,0,0,0,0,0,0
3.106415,1.816699,-10.595639,1.891618e-12,0,0,1.891618e-12,2.220446e-16,0,-5.389756e-17,0,0,0,0,2.344358e-16,-1.239122e-17,1.234135e-16,32.052502,1.645514e-16,1.605804e-16,0,0,0,0,0,0
3.153705,1.816699,-10.559136,1.891618e-12,0,0,1.891618e-12,0,2.220446e-16,1.451989e-18,0,0,0,0,2.220541e-16,-9.494408e-21,1.110318e-16,-45.374645,1.480424e-16,1.480392e-16,0,0,0,0,0,0
3.200996,1.816699,-10.517004,1.891618e-12,0,0,1.891618e-12,-3.330669e-16,2.220446e-16,1.404495e-17,0,0,0,0,2.223997e-16,-3.33422e-16,2.779109e-16,-46.448414,3.705479e-16,3.230307e-16,0,0,0,0,0,0
3.248286,1.816699,-10.469293,1.891618e-12,0,0,1.891618e-12,0,-1.110223e-16,2.733764e-17,0,0,0,0,6.366427e-18,-1.173887e-16,6.187758e-17,58.109459,8.250344e-17,8.046529e-17,0,0,0,0,0,0
3.295577,1.816699,-10.413737,1.891618e-12,0,0,1.891618e-12,2.220446e-16,2.220446e-16,-4.636402e-17,0,0,0,0,2.684086e-16,1.756806e-16,4.636402e-17,0,6.181869e-17,1.574134e-16,0,0,0,0,0,0
3.342867,1.816699,-10.348373,1.891618e-12,0,0,1.891618e-12,-1.110223e-16,2.220446e-16,3.268072e-17,0,0,0,0,2.25221e-16,-1.141987e-16,1.697098e-16,-50.551353,2.262797e-16,1.994278e-16,0,0,0,0,0,0
3.390158,1.816699,-10.282013,1.891618e-12,0,0,1.891618e-12,2.220446e-16,-1.110223e-16,-6.020757e-17,0,0,0,0,2.32594e-16,-1.215717e-16,1.770829e-16,35.061668,2.361105e-16,2.077996e-16,0,0,0,0,0,0
1.451249,1.769409,-10.067683,1.891618e-12,0,0,1.891618e-12,2.220446e-16,0,-1.262583e-17,0,0,0,0,2.227602e-16,-7.156201e-19,1.117379e-16,41.756001,1.489839e-16,1.487459e-16,0,0,0,0,0,0
1.49854,1.769409,-10.137826,1.891618e-12,0,0,1.891618e-12,2.220446e-16,2.220446e-16,1.689993e-17,0,0,0,0,2.389445e-16,2.051447e-16,1.689993e-17,90,2.253324e-17,1.493105e-16,0,0,0,0,0,0
1.54583,1.769409,-10.235978,1.891618e-12,0,0,1.891618e-12,0,2.220446e-16,4.291926e-17,0,0,0,0,2.300518e-16,-8.007168e-18,1.190295e-16,-55.56781,1.58706e-16,1.561054e-16,0,0,0,0,0,0
1.593121,1.769409,-10.317112,1.891618e-12,0,0,1.891618e-12,-4.440892e-16,0,-6.110808e-17,0,0,0,0,8.255208e-18,-4.523444e-16,2.302998e-16,-37.306381,3.070664e-16,3.04352e-16,0,0,0,0,0,0
1.640411,1.769409,-10.385518,1.891618e-12,0,0,1.891618e-12,-1.110223e-16,2.220446e-16,1.380763e-17,0,0,0,0,2.22616e-16,-1.115937e-16,1.671049e-16,-47.369835,2.228065e-16,1.964729e-16,0,0,0,0,0,0
1.687701,1.769409,-10.44356,1.891618e-12,0,0,1.891618e-12,-2.220446e-16,-1.110223e-16,-4.740316e-17,0,0,0,0,-9.353656e-17,-2.395304e-16,7.29969e-17,-24.75234,9.73292e-17,1.39394e-16,0,0,0,0,0,0
1.734992,1.769409,-10.49242,1.891618e-12,0,0,1.891618e-12,-2.220446e-16,-1.110223e-16,-2.050112e-17,0,0,0,0,-1.073576e-16,-2.257093e-16,5.917587e-17,-34.865021,7.890116e-17,1.303649e-16,0,0,0,0,0,0
1.782282,1.769409,-10.533761,1.891618e-12,0,0,1.891618e-12,2.220446e-16,0,-3.312424e-17,0,0,0,0,2.268807e-16,-4.836089e-18,1.158584e-16,36.693588,1.544779e-16,1.528913e-16,0,0,0,0,0,0
1.829573,1.769409,-10.569455,1.891618e-12,0,0,1.891618e-12,2.220446e-16,2.220446e-16,-1.147609e-18,0,0,0,0,2.231922e-16,2.20897e-16,1.147609e-18,0,1.530145e-18,1.480357e-16,0,0,0,0,0,0
1.876863,1.769409,-10.600577,1.891618e-12,0,0,1.891618e-12,2.220446e-16,4.440892e-16,4.687245e-17,0,0,0,0,4.535782e-16,2.125556e-16,1.205113e-16,-56.444481,1.606818e-16,2.620454e-16,0,0,0,0,0,0
1.924154,1.769409,-10.628082,1.891618e-12,0,0,1.891618e-12,-1.110223e-16,2.220446e-16,4.790487e-17,0,0,0,0,2.287978e-16,-1.177755e-16,1.732867e-16,-53.024181,2.310489e-16,2.034877e-16,0,0,0,0,0,0
1.971444,1.769409,-10.653844,1.891618e-12,0,0,1.891618e-12,2.220446e-16,-2.220446e-16,-1.28551e-17,0,0,0,0,2.224164e-16,-2.224164e-16,2.224164e-16,43.343304,2.965552e-16,2.568244e-16,0,0,0,0,0,0
2.018735,1.769409,-10.680292,1.891618e-12,0,0,1.891618e-12,-1.110223e-16,-2.220446e-16,-1.007395e-17,0,0,0,0,-1.101156e-16,-2.229513e-16,5.641783e-17,39.857063,7.522379e-17,1.287242e-16,0,0,0,0,0,0
2.066025,1.769409,-10.707358,1.891618e-12,0,0,1.891618e-12,0,2.220446e-16,-8.967366e-18,0,0,0,0,2.224062e-16,-3.615621e-19,1.113839e-16,-42.691097,1.485118e-16,1.483915e-16,0,0,0,0,0,0
2.113316,1.769409,-10.731525,1.891618e-12,0,0,1.891618e-12,-2.220446e-16,0,-3.454932e-17,0,0,0,0,5.251542e-18,-2.272962e-16,1.162738e-16,-36.357124,1.550318e-16,1.533113e-16,0,0,0,0,0,0
2.160606,1.769409,-10.748767,1.891618e-12,0,0,1.891618e-12,-1.110223e-16,2.220446e-16,-6.084242e-18,0,0,0,0,2.221557e-16,-1.111334e-16,1.666446e-16,-43.953823,2.221928e-16,1.959509e-16,0,0,0,0,0,0
2.207896,1.769409,-10.758884,1.891618e-12,0,0,1.891618e-12,-1.110223e-16,2.220446e-16,3.236879e-17,0,0,0,0,2.251612e-16,-1.141389e-16,1.6965e-16,-50.499664,2.262e-16,1.9936e-16,0,0,0,0,0,0
2.255187,1.769409,-10.765456,1.891618e-12,0,0,1.891618e-12,2.220446e-16,0,1.244408e-17,0,0,0,0,2.227398e-16,-6.952282e-19,1.117175e-16,48.197689,1.489567e-16,1.487255e-16,0,0,0,0,0,0
2.302477,1.769409,-10.772699,1.891618e-12,0,0,1.891618e-12,-1.110223e-16,-2.220446e-16,1.450875e-17,0,0,0,0,-1.091576e-16,-2.239093e-16,5.737588e-17,52.323761,7.650118e-17,1.292876e-16,0,0,0,0,0,0
2.349768,1.769409,-10.781617,1.891618e-12,0,0,1.891618e-12,2.220446e-16,0,1.049815e-17,0,0,0,0,2.225399e-16,-4.95242e-19,1.115175e-16,47.700882,1.486901e-16,1.485253e-16,0,0,0,0,0,0
2.397058,1.769409,-10.790116,1.891618e-12,0,0,1.891618e-12,-1.110223e-16,-1.110223e-16,-2.952246e-17,0,0,0,0,-8.149984e-17,-1.405448e-16,2.952246e-17,0,3.936328e-17,8.148804e-17,0,0,0,0,0,0
2.444349,1.769409,-10.795239,1.891618e-12,0,0,1.891618e-12,2.220446e-16,-1.110223e-16,-3.846935e-17,0,0,0,0,2.264301e-16,-1.154078e-16,1.709189e-16,38.496395,2.278919e-16,2.007999e-16,0,0,0,0,0,0
2.491639,1.769409,-10.796151,1.891618e-12,0,0,1.891618e-12,-1.110223e-16,-1.110223e-16,1.460567e-17,0,0,0,0,-9.641664e-17,-1.25628e-16,1.460567e-17,90,1.947422e-17,7.591202e-17,0,0,0,0,0,0
2.53893,1.769409,-10.794207,1.891618e-12,0,0,1.891618e-12,2.220446e-16,-1.110223e-16,8.33967e-18,0,0,0,0,2.222533e-16,-1.11231e-16,1.667421e-16,46.433434,2.223229e-16,1.960616e-16,0,0,0,0,0,0
2.58622,1.769409,-10.790687,1.891618e-12,0,0,1.891618e-12,2.220446e-16,0,2.535683e-17,0,0,0,0,2.249035e-16,-2.858866e-18,1.138812e-16,51.432671,1.518416e-16,1.508976e-16,0,0,0,0,0,0
2.633511,1.769409,-10.786975,1.891618e-12,0,0,1.891618e-12,0,-2.220446e-16,-1.13662e-17,0,0,0,0,5.803053e-19,-2.226249e-16,1.116026e-16,42.077282,1.488035e-16,1.486104e-16,0,0,0,0,0,0
2.680801,1.769409,-10.782687,1.891618e-12,0,0,1.891618e-12,0,0,3.771751e-17,0,0,0,0,3.771751e-17,-3.771751e-17,3.771751e-17,90,5.029001e-17,4.355242e-17,0,0,0,0,0,0
2.728091,1.769409,-10.775581,1.891618e-12,0,0,1.891618e-12,-1.110223e-16,2.220446e-16,1.644189e-19,0,0,0,0,2.220447e-16,-1.110224e-16,1.665335e-16,-45.028286,2.220447e-16,1.95825e-16,0,0,0,0,0,0
2.775382,1.769409,-10.763546,1.891618e-12,0,0,1.891618e-12,0,0,-1.006945e-17,0,0,0,0,1.006945e-17,-1.006945e-17,1.006945e-17,0,1.342593e-17,1.16272e-17,0,0,0,0,0,0
2.822672,1.769409,-10.745719,1.891618e-12,0,0,1.891618e-12,0,2.220446e-16,5.861256e-18,0,0,0,0,2.221992e-16,-1.546105e-19,1.111769e-16,-46.511021,1.482359e-16,1.481844e-16,0,0,0,0,0,0
2.869963,1.769409,-10.723214,1.891618e-12,0,0,1.891618e-12,0,-2.220446e-16,3.267476e-17,0,0,0,0,4.708384e-18,-2.26753e-16,1.157307e-16,53.199791,1.543076e-16,1.527623e-16,0,0,0,0,0,0
2.917253,1.769409,-10.699516,1.891618e-12,0,0,1.891618e-12,-1.110223e-16,-1.110223e-16,2.497519e-17,0,0,0,0,-8.604711e-17,-1.359975e-16,2.497519e-17,90,3.330026e-17,7.943476e-17,0,0,0,0,0,0
2.964544,1.769409,-10.676654,1.891618e-12,0,0,1.891618e-12,0,0,1.099297e-17,0,0,0,0,1.099297e-17,-1.099297e-17,1.099297e-17,90,1.46573e-17,1.269359e-17,0,0,0,0,0,0
3.011834,1.769409,-10.653878,1.891618e-12,0,0,1.891618e-12,2.220446e-16,0,1.345075e-17,0,0,0,0,2.228564e-16,-8.118347e-19,1.118341e-16,48.45396,1.491122e-16,1.488423e-16,0,0,0,0,0,0
3.059125,1.769409,-10.628705,1.891618e-12,0,0,1.891618e-12,-1.110223e-16,-1.110223e-16,3.722912e-17,0,0,0,0,-7.379319e-17,-1.482514e-16,3.722912e-17,90,4.963882e-17,8.559328e-17,0,0,0,0,0,0
3.106415,1.769409,-10.598338,1.891618e-12,0,0,1.891618e-12,-4.440892e-16,-1.110223e-16,2.797986e-17,0,0,0,0,-1.086882e-16,-4.464234e-16,1.688676e-16,-49.768692,2.251568e-16,2.68813e-16,0,0,0,0,0,0
3.153705,1.769409,-10.561093,1.891618e-12,0,0,1.891618e-12,-2.220446e-16,-1.110223e-16,-9.051832e-18,0,0,0,0,-1.102891e-16,-2.227778e-16,5.624432e-17,-40.369335,7.499243e-17,1.286229e-16,0,0,0,0,0,0
3.200996,1.769409,-10.518816,1.891618e-12,0,0,1.891618e-12,-2.220446e-16,-2.220446e-16,6.689439e-18,0,0,0,0,-2.153552e-16,-2.28734e-16,6.689439e-18,90,8.919252e-18,1.482311e-16,0,0,0,0,0,0
3.248286,1.769409,-10.472474,1.891618e-12,0,0,1.891618e-12,-2.220446e-16,0,5.203572e-17,0,0,0,0,1.158956e-17,-2.336342e-16,1.226119e-16,-57.556152,1.634825e-16,1.597595e-16,0,0,0,0,0,0
3.295577,1.769409,-10.418268,1.891618e-12,0,0,1.891618e-12,-1.110223e-16,2.220446e-16,-2.837073e-17,0,0,0,0,2.24444e-16,-1.134216e-16,1.689328e-16,-40.165939,2.252437e-16,1.985462e-16,0,0,0,0,0,0
3.342867,1.769409,-10.356304,1.891618e-12,0,0,1.891618e-12,2.220446e-16,-1.110223e-16,-7.840756e-18,0,0,0,0,2.222291e-16,-1.112068e-16,1.667179e-16,43.652191,2.222906e-16,1.960341e-16,0,0,0,0,0,0
3.390158,1.769409,-10.294986,1.891618e-12,0,0,1.891618e-12,2.220446e-16,-1.110223e-16,-3.862777e-17,0,0,0,0,2.264658e-16,-1.154435e-16,1.709547e-16,38.470528,2.279396e-16,2.008404e-16,0,0,0,0,0,0
1.451249,1.722118,-10.066506,1.891618e-12,0,0,1.891618e-12,-2.220446e-16,2.220446e-16,-5.080992e-17,0,0,0,0,2.277838e-16,-2.277838e-16,2.277838e-16,-38.555527,3.037117e-16,2.630221e-16,0,0,0,0,0,0
1.49854,1.722118,-10.137828,1.891618e-12,0,0,1.891618e-12,-2.220446e-16,0,-8.351449e-17,0,0,0,0,2.790437e-17,-2.49949e-16,1.389267e-16,-26.524179,1.852356e-16,1.766702e-16,0,0,0,0,0,0
1.54583,1.722118,-10.237152,1.891618e-12,0,0,1.891618e-12,0,-2.220446e-16,-7.665207e-17,0,0,0,0,2.38906e-17,-2.459352e-16,1.349129e-16,27.689005,1.798839e-16,1.724728e-16,0,0,0,0,0,0
1.593121,1.722118,-10.318873,1.891618e-12,0,0,1.891618e-12,-3.330669e-16,0,-3.440126e-17,0,0,0,0,3.516061e-18,-3.36583e-16,1.700495e-16,-39.164215,2.267327e-16,2.255698e-16,0,0,0,0,0,0
1.640411,1.722118,-10.387545,1.891618e-12,0,0,1.891618e-12,0,0,2.722942e-17,0,0,0,0,2.722942e-17,-2.722942e-17,2.722942e-17,90,3.630589e-17,3.144182e-17,0,0,0,0,0,0
1.687701,1.722118,-10.445479,1.891618e-12,0,0,1.891618e-12,2.220446e-16,0,-7.8218e-18,0,0,0,0,2.223198e-16,-2.751917e-19,1.112975e-16,42.985012,1.483967e-16,1.48305e-16,0,0,0,0,0,0
1.734992,1.722118,-10.494246,1.891618e-12,0,0,1.891618e-12,0,-1.110223e-16,-6.258054e-18,0,0,0,0,3.516374e-19,-1.113739e-16,5.586279e-17,41.783955,7.448372e-17,7.436678e-17,0,0,0,0,0,0
1.782282,1.722118,-10.536028,1.891618e-12,0,0,1.891618e-12,-4.440892e-16,2.220446e-16,-2.836271e-17,0,0,0,0,2.232501e-16,-4.452946e-16,3.342724e-16,-42.566326,4.456965e-16,3.930168e-16,0,0,0,0,0,0
1.829573,1.722118,-10.572766,1.891618e-12,0,0,1.891618e-12,0,2.220446e-16,-7.174494e-18,0,0,0,0,2.222762e-16,-2.315739e-19,1.112539e-16,-43.151283,1.483385e-16,1.482614e-16,0,0,0,0,0,0
1.876863,1.722118,-10.60529,1.891618e-12,0,0,1.891618e-12,-2.220446e-16,0,-3.506256e-17,0,0,0,0,5.405079e-18,-2.274497e-16,1.164274e-16,-36.236538,1.552365e-16,1.534665e-16,0,0,0,0,0,0
1.924154,1.722118,-10.634251,1.891618e-12,0,0,1.891618e-12,2.220446e-16,0,2.78919e-17,0,0,0,0,2.254946e-16,-3.450008e-18,1.144723e-16,52.05122,1.526298e-16,1.514928e-16,0,0,0,0,0,0
1.971444,1.722118,-10.661047,1.891618e-12,0,0,1.891618e-12,-2.220446e-16,0,-1.512333e-17,0,0,0,0,1.025307e-18,-2.230699e-16,1.120476e-16,-41.12149,1.493968e-16,1.490562e-16,0,0,0,0,0,0
2.018735,1.722118,-10.687832,1.891618e-12,0,0,1.891618e-12,-1.110223e-16,-4.440892e-16,-6.877502e-18,0,0,0,0,-1.108804e-16,-4.442311e-16,1.666754e-16,43.81757,2.222339e-16,2.669825e-16,0,0,0,0,0,0
2.066025,1.722118,-10.715235,1.891618e-12,0,0,1.891618e-12,0,2.220446e-16,3.971353e-17,0,0,0,0,2.289338e-16,-6.889172e-18,1.179115e-16,-54.841259,1.572153e-16,1.5497e-16,0,0,0,0,0,0
2.113316,1.722118,-10.739008,1.891618e-12,0,0,1.891618e-12,0,-1.110223e-16,-1.929247e-17,0,0,0,0,3.25693e-18,-1.142792e-16,5.876808e-17,35.417751,7.835744e-17,7.729467e-17,0,0,0,0,0,0
2.160606,1.722118,-10.754943,1.891618e-12,0,0,1.891618e-12,0,2.220446e-16,2.464776e-17,0,0,0,0,2.247477e-16,-2.703086e-18,1.137254e-16,-51.258537,1.516339e-16,1.507409e-16,0,0,0,0,0,0
2.207896,1.722118,-10.763123,1.891618e-12,0,0,1.891618e-12,-2.220446e-16,-1.110223e-16,2.675614e-18,0,0,0,0,-1.109579e-16,-2.221091e-16,5.55756e-17,-46.379749,7.410079e-17,1.282347e-16,0,0,0,0,0,0
2.255187,1.722118,-10.767425,1.891618e-12,0,0,1.891618e-12,2.220446e-16,-2.220446e-16,1.052375e-17,0,0,0,0,2.222938e-16,-2.222938e-16,2.222938e-16,46.356743,2.963918e-16,2.566828e-16,0,0,0,0,0,0
2.302477,1.722118,-10.773076,1.891618e-12,0,0,1.891618e-12,-1.110223e-16,2.220446e-16,-1.748412e-17,0,0,0,0,2.229599e-16,-1.119376e-16,1.674488e-16,-42.003277,2.23265e-16,1.968629e-16,0,0,0,0,0,0
2.349768,1.722118,-10.781604,1.891618e-12,0,0,1.891618e-12,0,-2.220446e-16,-2.717617e-17,0,0,0,0,3.277724e-18,-2.253223e-16,1.143e-16,38.122765,1.524e-16,1.513193e-16,0,0,0,0,0,0
2.397058,1.722118,-10.790164,1.891618e-12,0,0,1.891618e-12,-2.220446e-16,-2.220446e-16,3.491398e-17,0,0,0,0,-1.871306e-16,-2.569586e-16,3.491398e-17,90,4.655198e-17,1.534214e-16,0,0,0,0,0,0
2.444349,1.722118,-10.795668,1.891618e-12,0,0,1.891618e-12,2.220446e-16,-1.110223e-16,3.319803e-17,0,0,0,0,2.253214e-16,-1.14299e-16,1.698102e-16,50.63699,2.264136e-16,1.995417e-16,0,0,0,0,0,0
2.491639,1.722118,-10.796764,1.891618e-12,0,0,1.891618e-12,0,2.220446e-16,-8.032911e-18,0,0,0,0,2.223348e-16,-2.902274e-19,1.113125e-16,-42.930817,1.484167e-16,1.483201e-16,0,0,0,0,0,0
2.53893,1.722118,-10.794723,1.891618e-12,0,0,1.891618e-12,-1.110223e-16,-2.220446e-16,2.256557e-18,0,0,0,0,-1.109765e-16,-2.220905e-16,5.5557e-17,46.16391,7.4076e-17,1.28224e-16,0,0,0,0,0,0
2.58622,1.722118,-10.791201,1.891618e-12,0,0,1.891618e-12,0,-1.110223e-16,2.336796e-17,0,0,0,0,4.717991e-18,-1.157403e-16,6.022914e-17,56.414566,8.030553e-17,7.877997e-17,0,0,0,0,0,0
2.633511,1.722118,-10.787557,1.891618e-12,0,0,1.891618e-12,2.220446e-16,2.220446e-16,-6.785954e-17,0,0,0,0,2.899041e-16,1.541851e-16,6.785954e-17,0,9.047938e-17,1.674894e-16,0,0,0,0,0,0
2.680801,1.722118,-10.783415,1.891618e-12,0,0,1.891618e-12,-1.110223e-16,0,-1.243138e-17,0,0,0,0,1.374937e-18,-1.123972e-16,5.688609e-17,-38.688614,7.584811e-17,7.539399e-17,0,0,0,0,0,0
2.728091,1.722118,-10.776529,1.891618e-12,0,0,1.891618e-12,-2.220446e-16,0,2.363657e-17,0,0,0,0,2.488222e-18,-2.245328e-16,1.135105e-16,-51.009392,1.513474e-16,1.505248e-16,0,0,0,0,0,0
2.775382,1.722118,-10.764723,1.891618e-12,0,0,1.891618e-12,2.220446e-16,2.220446e-16,-1.174672e-17,0,0,0,0,2.337913e-16,2.102979e-16,1.174672e-17,0,1.566229e-17,1.486499e-16,0,0,0,0,0,0
2.822672,1.722118,-10.747389,1.891618e-12,0,0,1.891618e-12,2.220446e-16,-1.110223e-16,-1.758216e-17,0,0,0,0,2.229702e-16,-1.119479e-16,1.67459e-16,41.986595,2.232787e-16,1.968745e-16,0,0,0,0,0,0
2.869963,1.722118,-10.72575,1.891618e-12,0,0,1.891618e-12,-1.110223e-16,0,1.027914e-17,0,0,0,0,9.436862e-19,-1.11966e-16,5.645484e-17,-50.245388,7.527312e-17,7.496054e-17,0,0,0,0,0,0
2.917253,1.722118,-10.703115,1.891618e-12,0,0,1.891618e-12,2.220446e-16,0,-7.568562e-18,0,0,0,0,2.223023e-16,-2.576813e-19,1.1128e-16,43.050045,1.483733e-16,1.482875e-16,0,0,0,0,0,0
2.964544,1.722118,-10.680996,1.891618e-12,0,0,1.891618e-12,2.220446e-16,2.220446e-16,7.87195e-18,0,0,0,0,2.299166e-16,2.141727e-16,7.87195e-18,90,1.049593e-17,1.483085e-16,0,0,0,0,0,0
3.011834,1.722118,-10.658353,1.891618e-12,0,0,1.891618e-12,-1.110223e-16,2.220446e-16,-5.062436e-17,0,0,0,0,2.295692e-16,-1.185469e-16,1.740581e-16,-36.545647,2.320774e-16,2.043637e-16,0,0,0,0,0,0
3.059125,1.722118,-10.632629,1.891618e-12,0,0,1.891618e-12,0,2.220446e-16,-7.737532e-18,0,0,0,0,2.223139e-16,-2.693012e-19,1.112916e-16,-43.006653,1.483888e-16,1.482991e-16,0,0,0,0,0,0
3.106415,1.722118,-10.601004,1.891618e-12,0,0,1.891618e-12,-2.220446e-16,2.220446e-16,-1.962977e-17,0,0,0,0,2.229106e-16,-2.229106e-16,2.229106e-16,-42.473961,2.972141e-16,2.57395e-16,0,0,0,0,0,0
3.153705,1.722118,-10.562333,1.891618e-12,0,0,1.891618e-12,0,2.220446e-16,-5.404669e-18,0,0,0,0,2.221761e-16,-1.314743e-19,1.111538e-16,-43.606495,1.48205e-16,1.481612e-16,0,0,0,0,0,0
3.200996,1.722118,-10.519005,1.891618e-12,0,0,1.891618e-12,0,0,1.89919e-17,0,0,0,0,1.89919e-17,-1.89919e-17,1.89919e-17,90,2.532254e-17,2.192996e-17,0,0,0,0,0,0
3.248286,1.722118,-10.472289,1.891618e-12,0,0,1.891618e-12,0,-1.110223e-16,-2.079692e-18,0,0,0,0,3.894356e-20,-1.110612e-16,5.555009e-17,43.927227,7.406679e-17,7.405381e-17,0,0,0,0,0,0
3.295577,1.722118,-10.418844,1.891618e-12,0,0,1.891618e-12,-2.220446e-16,0,-3.624013e-17,0,0,0,0,5.765107e-18,-2.278097e-16,1.167874e-16,-35.961086,1.557166e-16,1.538309e-16,0,0,0,0,0,0
3.342867,1.722118,-10.359402,1.891618e-12,0,0,1.891618e-12,0,2.220446e-16,-1.23207e-18,0,0,0,0,2.220514e-16,-6.836239e-21,1.110291e-16,-44.682095,1.480388e-16,1.480366e-16,0,0,0,0,0,0
3.390158,1.722118,-10.302149,1.891618e-12,0,0,1.891618e-12,2.220446e-16,-1.110223e-16,1.560348e-17,0,0,0,0,2.22774e-16,-1.117517e-16,1.672628e-16,47.676373,2.230171e-16,1.966521e-16,0,0,0,0,0,0
1.451249,1.674828,-10.065686,1.891618e-12,0,0,1.891618e-12,-4.440892e-16,2.220446e-16,-2.004598e-17,0,0,0,0,2.226473e-16,-4.446919e-16,3.336696e-16,-43.277874,4.448928e-16,3.923333e-16,0,0,0,0,0,0
1.49854,1.674828,-10.138756,1.891618e-12,0,0,1.891618e-12,2.220446e-16,2.220446e-16,2.525804e-17,0,0,0,0,2.473027e-16,1.967866e-16,2.525804e-17,90,3.367739e-17,1.508755e-16,0,0,0,0,0,0
1.54583,1.674828,-10.239296,1.891618e-12,0,0,1.891618e-12,0,2.220446e-16,-1.363201e-17,0,0,0,0,2.228784e-16,-8.337809e-19,1.118561e-16,-41.499954,1.491414e-16,1.488643e-16,0,0,0,0,0,0
1.593121,1.674828,-10.321046,1.891618e-12,0,0,1.891618e-12,2.220446e-16,-2.220446e-16,4.877769e-18,0,0,0,0,2.220982e-16,-2.220982e-16,2.220982e-16,45.629223,2.961309e-16,2.564569e-16,0,0,0,0,0,0
1.640411,1.674828,-10.389313,1.891618e-12,0,0,1.891618e-12,2.220446e-16,4.440892e-16,-5.241349e-17,0,0,0,0,4.558396e-16,2.102942e-16,1.227727e-16,-32.364033,1.636969e-16,2.634413e-16,0,0,0,0,0,0
1.687701,1.674828,-10.446618,1.891618e-12,0,0,1.891618e-12,0,4.440892e-16,2.908742e-17,0,0,0,0,4.459863e-16,-1.897094e-18,2.239417e-16,-48.731571,2.985889e-16,2.979586e-16,0,0,0,0,0,0
1.734992,1.674828,-10.495061,1.891618e-12,0,0,1.891618e-12,4.440892e-16,-1.110223e-16,-8.094627e-18,0,0,0,0,4.442072e-16,-1.111403e-16,2.776738e-16,44.164749,3.702317e-16,3.393075e-16,0,0,0,0,0,0
1.782282,1.674828,-10.537278,1.891618e-12,0,0,1.891618e-12,-4.440892e-16,0,-3.135974e-17,0,0,0,0,2.203562e-18,-4.462928e-16,2.242482e-16,-40.980591,2.989975e-16,2.982657e-16,0,0,0,0,0,0
1.829573,1.674828,-10.575431,1.891618e-12,0,0,1.891618e-12,2.220446e-16,0,-1.212666e-18,0,0,0,0,2.220512e-16,-6.622608e-21,1.110289e-16,44.687099,1.480386e-16,1.480364e-16,0,0,0,0,0,0
1.876863,1.674828,-10.609914,1.891618e-12,0,0,1.891618e-12,-2.220446e-16,-2.220446e-16,-1.736421e-17,0,0,0,0,-2.046804e-16,-2.394088e-16,1.736421e-17,0,2.315227e-17,1.493815e-16,0,0,0,0,0,0
1.924154,1.674828,-10.6413,1.891618e-12,0,0,1.891618e-12,-3.330669e-16,-2.220446e-16,5.668266e-18,0,0,0,0,-2.21756e-16,-3.333556e-16,5.57998e-17,-47.915146,7.439973e-17,1.959343e-16,0,0,0,0,0,0
1.971444,1.674828,-10.670246,1.891618e-12,0,0,1.891618e-12,2.220446e-16,-1.110223e-16,-2.775192e-17,0,0,0,0,2.243411e-16,-1.133188e-16,1.6883e-16,40.269451,2.251066e-16,1.984296e-16,0,0,0,0,0,0
2.018735,1.674828,-10.698274,1.891618e-12,0,0,1.891618e-12,0,0,-9.857808e-18,0,0,0,0,9.857808e-18,-9.857808e-18,9.857808e-18,0,1.314375e-17,1.138282e-17,0,0,0,0,0,0
2.066025,1.674828,-10.726267,1.891618e-12,0,0,1.891618e-12,0,0,1.40687e-17,0,0,0,0,1.40687e-17,-1.40687e-17,1.40687e-17,90,1.875826e-17,1.624513e-17,0,0,0,0,0,0
2.113316,1.674828,-10.750094,1.891618e-12,0,0,1.891618e-12,0,2.220446e-16,2.958085e-17,0,0,0,0,2.259178e-16,-3.873207e-18,1.148955e-16,-52.459663,1.53194e-16,1.519194e-16,0,0,0,0,0,0
2.160606,1.674828,-10.765184,1.891618e-12,0,0,1.891618e-12,2.220446e-16,2.220446e-16,1.136884e-17,0,0,0,0,2.334135e-16,2.106758e-16,1.136884e-17,90,1.515846e-17,1.486107e-16,0,0,0,0,0,0
2.207896,1.674828,-10.771951,1.891618e-12,0,0,1.891618e-12,0,-1.110223e-16,-2.508331e-17,0,0,0,0,5.404038e-18,-1.164263e-16,6.091519e-17,32.841827,8.122026e-17,7.948017e-17,0,0,0,0,0,0
2.255187,1.674828,-10.774253,1.891618e-12,0,0,1.891618e-12,2.220446e-16,-1.110223e-16,4.106782e-17,0,0,0,0,2.270336e-16,-1.160113e-16,1.715225e-16,51.926483,2.286966e-16,2.014849e-16,0,0,0,0,0,0
2.302477,1.674828,-10.777571,1.891618e-12,0,0,1.891618e-12,-2.220446e-16,-2.220446e-16,1.581331e-18,0,0,0,0,-2.204633e-16,-2.236259e-16,1.581331e-18,90,2.108442e-18,1.48041e-16,0,0,0,0,0,0
2.349768,1.674828,-10.784209,1.891618e-12,0,0,1.891618e-12,-1.110223e-16,-1.110223e-16,-3.237169e-17,0,0,0,0,-7.865062e-17,-1.43394e-16,3.237169e-17,0,4.316225e-17,8.291825e-17,0,0,0,0,0,0
2.397058,1.674828,-10.791584,1.891618e-12,0,0,1.891618e-12,2.220446e-16,2.220446e-16,-3.683822e-17,0,0,0,0,2.588828e-16,1.852064e-16,3.683822e-17,0,4.911762e-17,1.540202e-16,0,0,0,0,0,0
2.444349,1.674828,-10.796561,1.891618e-12,0,0,1.891618e-12,-1.110223e-16,-1.110223e-16,3.08929e-17,0,0,0,0,-8.01294e-17,-1.419152e-16,3.08929e-17,90,4.119054e-17,8.216262e-17,0,0,0,0,0,0
2.491639,1.674828,-10.797735,1.891618e-12,0,0,1.891618e-12,2.220446e-16,-2.220446e-16,3.186715e-18,0,0,0,0,2.220675e-16,-2.220675e-16,2.220675e-16,45.411118,2.960899e-16,2.564214e-16,0,0,0,0,0,0
2.53893,1.674828,-10.796013,1.891618e-12,0,0,1.891618e-12,2.220446e-16,2.220446e-16,-9.822145e-18,0,0,0,0,2.318667e-16,2.122225e-16,9.822145e-18,0,1.309619e-17,1.484636e-16,0,0,0,0,0,0
2.58622,1.674828,-10.792611,1.891618e-12,0,0,1.891618e-12,0,2.220446e-16,4.986003e-17,0,0,0,0,2.327267e-16,-1.068215e-17,1.217045e-16,-57.092407,1.622726e-16,1.588317e-16,0,0,0,0,0,0
2.633511,1.674828,-10.78874,1.891618e-12,0,0,1.891618e-12,-1.110223e-16,2.220446e-16,-1.470529e-17,0,0,0,0,2.226926e-16,-1.116703e-16,1.671814e-16,-42.476868,2.229086e-16,1.965597e-16,0,0,0,0,0,0
2.680801,1.674828,-10.784026,1.891618e-12,0,0,1.891618e-12,-1.110223e-16,0,-4.895004e-17,0,0,0,0,1.849962e-17,-1.295219e-16,7.401077e-17,-24.296986,9.868103e-17,9.3129e-17,0,0,0,0,0,0
2.728091,1.674828,-10.776719,1.891618e-12,0,0,1.891618e-12,-1.110223e-16,0,-7.301916e-19,0,0,0,0,4.802249e-21,-1.110271e-16,5.551596e-17,-44.623188,7.402127e-17,7.401967e-17,0,0,0,0,0,0
2.775382,1.674828,-10.764778,1.891618e-12,0,0,1.891618e-12,-2.220446e-16,0,5.670721e-17,0,0,0,0,1.364389e-17,-2.356885e-16,1.246662e-16,-58.528362,1.662216e-16,1.618654e-16,0,0,0,0,0,0
2.822672,1.674828,-10.747892,1.891618e-12,0,0,1.891618e-12,-1.110223e-16,0,1.919012e-17,0,0,0,0,3.223408e-18,-1.142457e-16,5.873456e-17,-54.535091,7.831275e-17,7.726069e-17,0,0,0,0,0,0
2.869963,1.674828,-10.72726,1.891618e-12,0,0,1.891618e-12,0,2.220446e-16,-5.373724e-19,0,0,0,0,2.220459e-16,-1.300493e-21,1.110236e-16,-44.86134,1.480315e-16,1.48031e-16,0,0,0,0,0,0
2.917253,1.674828,-10.70563,1.891618e-12,0,0,1.891618e-12,-2.220446e-16,-1.110223e-16,-4.864758e-17,0,0,0,0,-9.272237e-17,-2.403445e-16,7.381108e-17,-24.385035,9.841477e-17,1.399645e-16,0,0,0,0,0,0
2.964544,1.674828,-10.68419,1.891618e-12,0,0,1.891618e-12,2.220446e-16,0,-2.013721e-17,0,0,0,0,2.238561e-16,-1.811465e-18,1.128338e-16,39.859734,1.50445e-16,1.498449e-16,0,0,0,0,0,0
3.011834,1.674828,-10.661886,1.891618e-12,0,0,1.891618e-12,2.220446e-16,0,-6.77736e-18,0,0,0,0,2.222513e-16,-2.066697e-19,1.11229e-16,43.253357,1.483053e-16,1.482365e-16,0,0,0,0,0,0
3.059125,1.674828,-10.635926,1.891618e-12,0,0,1.891618e-12,4.440892e-16,4.440892e-16,9.106111e-18,0,0,0,0,4.531953e-16,4.349831e-16,9.106111e-18,90,1.214148e-17,2.962461e-16,0,0,0,0,0,0
3.106415,1.674828,-10.603449,1.891618e-12,0,0,1.891618e-12,0,0,-1.904895e-17,0,0,0,0,1.904895e-17,-1.904895e-17,1.904895e-17,0,2.53986e-17,2.199583e-17,0,0,0,0,0,0
3.153705,1.674828,-10.563553,1.891618e-12,0,0,1.891618e-12,0,0,-8.705413e-18,0,0,0,0,8.705413e-18,-8.705413e-18,8.705413e-18,0,1.160722e-17,1.005214e-17,0,0,0,0,0,0
3.200996,1.674828,-10.518992,1.891618e-12,0,0,1.891618e-12,0,-1.110223e-16,-8.835889e-18,0,0,0,0,6.988198e-19,-1.117211e-16,5.620997e-17,40.477959,7.494663e-17,7.471478e-17,0,0,0,0,0,0
3.248286,1.674828,-10.471322,1.891618e-12,0,0,1.891618e-12,-3.330669e-16,0,-4.259783e-17,0,0,0,0,5.361766e-18,-3.384287e-16,1.718952e-16,-37.825939,2.291936e-16,2.274274e-16,0,0,0,0,0,0
3.295577,1.674828,-10.418168,1.891618e-12,0,0,1.891618e-12,-2.220446e-16,2.220446e-16,1.472165e-17,0,0,0,0,2.225321e-16,-2.225321e-16,2.225321e-16,-46.896591,2.967095e-16,2.569579e-16,0,0,0,0,0,0
3.342867,1.674828,-10.359968,1.891618e-12,0,0,1.891618e-12,2.220446e-16,2.220446e-16,-7.081892e-17,0,0,0,0,2.928635e-16,1.512257e-16,7.081892e-17,0,9.442522e-17,1.69115e-16,0,0,0,0,0,0
3.390158,1.674828,-10.304867,1.891618e-12,0,0,1.891618e-12,0,4.440892e-16,-1.054203e-17,0,0,0,0,4.443393e-16,-2.501114e-19,2.222947e-16,-43.640903,2.963929e-16,2.963096e-16,0,0,0,0,0,0
1.451249,1.627538,-10.067529,1.891618e-12,0,0,1.891618e-12,2.220446e-16,2.220446e-16,-3.821765e-17,0,0,0,0,2.602623e-16,1.83827e-16,3.821765e-17,0,5.095686e-17,1.544676e-16,0,0,0,0,0,0
1.49854,1.627538,-10.142871,1.891618e-12,0,0,1.891618e-12,0,2.220446e-16,-3.491025e-17,0,0,0,0,2.274039e-16,-5.359299e-18,1.163816e-16,-36.272289,1.551755e-16,1.534202e-16,0,0,0,0,0,0
1.54583,1.627538,-10.244322,1.891618e-12,0,0,1.891618e-12,-2.220446e-16,0,-1.175329e-17,0,0,0,0,6.203927e-19,-2.22665e-16,1.116427e-16,-41.97847,1.488569e-16,1.486506e-16,0,0,0,0,0,0
1.593121,1.627538,-10.325415,1.891618e-12,0,0,1.891618e-12,0,2.220446e-16,2.405213e-17,0,0,0,0,2.246201e-16,-2.575481e-18,1.135978e-16,-51.111893,1.514637e-16,1.506126e-16,0,0,0,0,0,0
1.640411,1.627538,-10.392415,1.891618e-12,0,0,1.891618e-12,0,0,-4.170238e-17,0,0,0,0,4.170238e-17,-4.170238e-17,4.170238e-17,0,5.560318e-17,4.815376e-17,0,0,0,0,0,0
1.687701,1.627538,-10.448609,1.891618e-12,0,0,1.891618e-12,-2.220446e-16,2.220446e-16,1.639978e-18,0,0,0,0,2.220507e-16,-2.220507e-16,2.220507e-16,-45.211582,2.960676e-16,2.56402e-16,0,0,0,0,0,0
1.734992,1.627538,-10.496655,1.891618e-12,0,0,1.891618e-12,-2.220446e-16,-2.220446e-16,-4.69033e-18,0,0,0,0,-2.173543e-16,-2.267349e-16,4.69033e-18,0,6.253774e-18,1.481288e-16,0,0,0,0,0,0
1.782282,1.627538,-10.539273,1.891618e-12,0,0,1.891618e-12,-2.220446e-16,-2.220446e-16,-1.918572e-17,0,0,0,0,-2.028589e-16,-2.412303e-16,1.918572e-17,0,2.558096e-17,1.496783e-16,0,0,0,0,0,0
1.829573,1.627538,-10.578561,1.891618e-12,0,0,1.891618e-12,0,2.220446e-16,4.301187e-17,0,0,0,0,2.300852e-16,-8.040591e-18,1.190629e-16,-55.588596,1.587505e-16,1.561394e-16,0,0,0,0,0,0
1.876863,1.627538,-10.614628,1.891618e-12,0,0,1.891618e-12,0,0,-1.230148e-18,0,0,0,0,1.230148e-18,-1.230148e-18,1.230148e-18,0,1.640197e-18,1.420452e-18,0,0,0,0,0,0
1.924154,1.627538,-10.647457,1.891618e-12,0,0,1.891618e-12,-4.440892e-16,-2.220446e-16,-3.581539e-17,0,0,0,0,-2.164106e-16,-4.497232e-16,1.166563e-16,-36.060246,1.555417e-16,2.597089e-16,0,0,0,0,0,0
1.971444,1.627538,-10.677851,1.891618e-12,0,0,1.891618e-12,-3.330669e-16,2.220446e-16,-3.770279e-17,0,0,0,0,2.245936e-16,-3.356159e-16,2.801048e-16,-41.132183,3.734731e-16,3.255475e-16,0,0,0,0,0,0
2.018735,1.627538,-10.707333,1.891618e-12,0,0,1.891618e-12,2.220446e-16,-1.110223e-16,3.545758e-17,0,0,0,0,2.257775e-16,-1.147552e-16,1.702664e-16,51.009842,2.270218e-16,2.000593e-16,0,0,0,0,0,0
2.066025,1.627538,-10.73575,1.891618e-12,0,0,1.891618e-12,2.220446e-16,2.220446e-16,3.535836e-17,0,0,0,0,2.57403e-16,1.866862e-16,3.535836e-17,90,4.714449e-17,1.53557e-16,0,0,0,0,0,0
2.113316,1.627538,-10.759673,1.891618e-12,0,0,1.891618e-12,2.220446e-16,-1.110223e-16,1.741857e-17,0,0,0,0,2.229531e-16,-1.119308e-16,1.674419e-16,47.985569,2.232559e-16,1.968551e-16,0,0,0,0,0,0
2.160606,1.627538,-10.774554,1.891618e-12,0,0,1.891618e-12,0,0,2.568825e-18,0,0,0,0,2.568825e-18,-2.568825e-18,2.568825e-18,90,3.4251e-18,2.966224e-18,0,0,0,0,0,0
2.207896,1.627538,-10.780391,1.891618e-12,0,0,1.891618e-12,-1.110223e-16,0,1.119935e-17,0,0,0,0,1.118463e-18,-1.121408e-16,5.662961e-17,-50.70314,7.550615e-17,7.51361e-17,0,0,0,0,0,0
2.255187,1.627538,-10.781875,1.891618e-12,0,0,1.891618e-12,0,2.220446e-16,-5.847677e-18,0,0,0,0,2.221985e-16,-1.538954e-19,1.111762e-16,-43.492474,1.482349e-16,1.481837e-16,0,0,0,0,0,0
2.302477,1.627538,-10.783659,1.891618e-12,0,0,1.891618e-12,2.220446e-16,-2.220446e-16,1.360751e-17,0,0,0,0,2.224612e-16,-2.224612e-16,2.224612e-16,46.753429,2.966149e-16,2.56876e-16,0,0,0,0,0,0
2.349768,1.627538,-10.788078,1.891618e-12,0,0,1.891618e-12,2.220446e-16,0,1.987889e-19,0,0,0,0,2.220448e-16,-1.779687e-22,1.110225e-16,45.051296,1.4803e-16,1.480299e-16,0,0,0,0,0,0
2.397058,1.627538,-10.794014,1.891618e-12,0,0,1.891618e-12,-2.220446e-16,0,-2.710829e-17,0,0,0,0,3.261602e-18,-2.253062e-16,1.142839e-16,-38.139294,1.523785e-16,1.513031e-16,0,0,0,0,0,0
2.444349,1.627538,-10.798245,1.891618e-12,0,0,1.891618e-12,-2.220446e-16,0,3.257669e-17,0,0,0,0,4.680732e-18,-2.267253e-16,1.15703e-16,-53.176495,1.542707e-16,1.527344e-16,0,0,0,0,0,0
2.491639,1.627538,-10.799368,1.891618e-12,0,0,1.891618e-12,-1.110223e-16,-2.220446e-16,3.693642e-17,0,0,0,0,-9.985672e-17,-2.332102e-16,6.667673e-17,61.819645,8.890231e-17,1.351061e-16,0,0,0,0,0,0
2.53893,1.627538,-10.79806,1.891618e-12,0,0,1.891618e-12,2.220446e-16,0,-2.49894e-17,0,0,0,0,2.248222e-16,-2.777619e-18,1.137999e-16,38.657501,1.517332e-16,1.508159e-16,0,0,0,0,0,0
2.58622,1.627538,-10.794937,1.891618e-12,0,0,1.891618e-12,2.220446e-16,0,-4.81438e-17,0,0,0,0,2.320338e-16,-9.989175e-18,1.210115e-16,33.278236,1.613486e-16,1.581241e-16,0,0,0,0,0,0
2.633511,1.627538,-10.790888,1.891618e-12,0,0,1.891618e-12,2.220446e-16,-1.110223e-16,-1.080233e-17,0,0,0,0,2.223946e-16,-1.113723e-16,1.668834e-16,43.144329,2.225112e-16,1.962218e-16,0,0,0,0,0,0
2.680801,1.627538,-10.785619,1.891618e-12,0,0,1.891618e-12,-1.110223e-16,-2.220446e-16,-2.313496e-17,0,0,0,0,-1.063943e-16,-2.266726e-16,6.013913e-17,33.687729,8.01855e-17,1.309513e-16,0,0,0,0,0,0
2.728091,1.627538,-10.777669,1.891618e-12,0,0,1.891618e-12,0,2.220446e-16,3.326843e-17,0,0,0,0,2.26922e-16,-4.877395e-18,1.158997e-16,-53.340565,1.545329e-16,1.529331e-16,0,0,0,0,0,0
2.775382,1.627538,-10.765374,1.891618e-12,0,0,1.891618e-12,2.220446e-16,2.220446e-16,4.056497e-17,0,0,0,0,2.626096e-16,1.814796e-16,4.056497e-17,90,5.408662e-17,1.552637e-16,0,0,0,0,0,0
2.822672,1.627538,-10.748624,1.891618e-12,0,0,1.891618e-12,-1.110223e-16,2.220446e-16,-1.646169e-17,0,0,0,0,2.228562e-16,-1.118339e-16,1.673451e-16,-42.177349,2.231268e-16,1.967453e-16,0,0,0,0,0,0
2.869963,1.627538,-10.728667,1.891618e-12,0,0,1.891618e-12,0,2.220446e-16,3.895656e-17,0,0,0,0,2.28681e-16,-6.636378e-18,1.176587e-16,-54.667717,1.568782e-16,1.547136e-16,0,0,0,0,0,0
2.917253,1.627538,-10.707631,1.891618e-12,0,0,1.891618e-12,2.220446e-16,-1.110223e-16,5.787654e-17,0,0,0,0,2.318151e-16,-1.207928e-16,1.76304e-16,54.582115,2.350719e-16,2.069146e-16,0,0,0,0,0,0
2.964544,1.627538,-10.68661,1.891618e-12,0,0,1.891618e-12,0,-1.110223e-16,2.304627e-18,0,0,0,0,4.781939e-20,-1.110701e-16,5.555897e-17,46.188675,7.407863e-17,7.406269e-17,0,0,0,0,0,0
3.011834,1.627538,-10.664412,1.891618e-12,0,0,1.891618e-12,-1.110223e-16,2.220446e-16,-2.021678e-17,0,0,0,0,2.232672e-16,-1.12245e-16,1.677561e-16,-41.539146,2.236748e-16,1.972115e-16,0,0,0,0,0,0
3.059125,1.627538,-10.638463,1.891618e-12,0,0,1.891618e-12,0,-1.110223e-16,-6.027426e-18,0,0,0,0,3.262715e-19,-1.113486e-16,5.583742e-17,41.901539,7.444989e-17,7.434138e-17,0,0,0,0,0,0
3.106415,1.627538,-10.605874,1.891618e-12,0,0,1.891618e-12,-2.220446e-16,2.220446e-16,-1.186598e-17,0,0,0,0,2.223614e-16,-2.223614e-16,2.223614e-16,-43.470524,2.964819e-16,2.567609e-16,0,0,0,0,0,0
3.153705,1.627538,-10.565654,1.891618e-12,0,0,1.891618e-12,0,2.220446e-16,-1.037997e-17,0,0,0,0,2.225288e-16,-4.841792e-19,1.115065e-16,-42.329346,1.486753e-16,1.485142e-16,0,0,0,0,0,0
3.200996,1.627538,-10.520925,1.891618e-12,0,0,1.891618e-12,0,2.220446e-16,-1.316168e-17,0,0,0,0,2.22822e-16,-7.774357e-19,1.117997e-16,-41.619576,1.490663e-16,1.488078e-16,0,0,0,0,0,0
3.248286,1.627538,-10.472461,1.891618e-12,0,0,1.891618e-12,0,-1.110223e-16,-4.923932e-18,0,0,0,0,2.179526e-19,-1.112403e-16,5.57291e-17,42.465519,7.430547e-17,7.423293e-17,0,0,0,0,0,0
3.295577,1.627538,-10.419823,1.891618e-12,0,0,1.891618e-12,-2.220446e-16,-1.110223e-16,3.202821e-17,0,0,0,0,-1.024453e-16,-2.306216e-16,6.408817e-17,-59.991802,8.545089e-17,1.334254e-16,0,0,0,0,0,0
3.342867,1.627538,-10.36227,1.891618e-12,0,0,1.891618e-12,0,0,-4.737654e-18,0,0,0,0,4.737654e-18,-4.737654e-18,4.737654e-18,0,6.316872e-18,5.470571e-18,0,0,0,0,0,0
3.390158,1.627538,-10.307625,1.891618e-12,0,0,1.891618e-12,0,2.220446e-16,3.037087e-17,0,0,0,0,2.261237e-16,-4.079138e-18,1.151014e-16,-52.649666,1.534686e-16,1.521271e-16,0,0,0,0,0,0
1.451249,1.580247,-10.072356,1.891618e-12,0,0,1.891618e-12,-2.220446e-16,0,8.682288e-17,0,0,0,0,2.991798e-17,-2.519626e-16,1.409403e-16,-64.013252,1.879204e-16,1.787841e-16,0,0,0,0,0,0
1.49854,1.580247,-10.15031,1.891618e-12,0,0,1.891618e-12,2.220446e-16,-1.110223e-16,1.222094e-17,0,0,0,0,2.224924e-16,-1.114701e-16,1.669813e-16,47.098545,2.226417e-16,1.963327e-16,0,0,0,0,0,0
1.54583,1.580247,-10.252046,1.891618e-12,0,0,1.891618e-12,0,-1.110223e-16,-1.226424e-17,0,0,0,0,1.338647e-18,-1.123609e-16,5.68498e-17,38.770802,7.579973e-17,7.535748e-17,0,0,0,0,0,0
1.593121,1.580247,-10.332226,1.891618e-12,0,0,1.891618e-12,2.220446e-16,-1.110223e-16,-3.579067e-17,0,0,0,0,2.258472e-16,-1.148249e-16,1.70336e-16,38.935368,2.271147e-16,2.001384e-16,0,0,0,0,0,0
1.640411,1.580247,-10.397473,1.891618e-12,0,0,1.891618e-12,-3.330669e-16,-1.110223e-16,3.746168e-17,0,0,0,0,-1.048724e-16,-3.392168e-16,1.171722e-16,-54.322834,1.562296e-16,2.005457e-16,0,0,0,0,0,0
1.687701,1.580247,-10.452289,1.891618e-12,0,0,1.891618e-12,0,2.220446e-16,-6.878771e-18,0,0,0,0,2.222575e-16,-2.128949e-19,1.112352e-16,-43.227287,1.483136e-16,1.482427e-16,0,0,0,0,0,0
1.734992,1.580247,-10.49977,1.891618e-12,0,0,1.891618e-12,-2.220446e-16,0,-2.121873e-17,0,0,0,0,2.009491e-18,-2.240541e-16,1.130318e-16,-39.590015,1.507091e-16,1.500437e-16,0,0,0,0,0,0
1.782282,1.580247,-10.542589,1.891618e-12,0,0,1.891618e-12,-2.220446e-16,0,-3.766545e-17,0,0,0,0,6.215227e-18,-2.282598e-16,1.172375e-16,-35.629982,1.563167e-16,1.542867e-16,0,0,0,0,0,0
1.829573,1.580247,-10.582198,1.891618e-12,0,0,1.891618e-12,-2.220446e-16,0,-3.763093e-18,0,0,0,0,6.375657e-20,-2.221084e-16,1.110861e-16,-44.029354,1.481147e-16,1.480935e-16,0,0,0,0,0,0
1.876863,1.580247,-10.618378,1.891618e-12,0,0,1.891618e-12,0,0,-1.7762e-18,0,0,0,0,1.7762e-18,-1.7762e-18,1.7762e-18,0,2.368266e-18,2.050979e-18,0,0,0,0,0,0
1.924154,1.580247,-10.651164,1.891618e-12,0,0,1.891618e-12,-2.220446e-16,0,-2.607345e-17,0,0,0,0,3.020569e-18,-2.250652e-16,1.140429e-16,-38.39183,1.520572e-16,1.510604e-16,0,0,0,0,0,0
1.971444,1.580247,-10.681698,1.891618e-12,0,0,1.891618e-12,0,0,2.260477e-17,0,0,0,0,2.260477e-17,-2.260477e-17,2.260477e-17,90,3.013969e-17,2.610174e-17,0,0,0,0,0,0
2.018735,1.580247,-10.711285,1.891618e-12,0,0,1.891618e-12,2.220446e-16,2.220446e-16,-3.194833e-17,0,0,0,0,2.539929e-16,1.900963e-16,3.194833e-17,0,4.259777e-17,1.525573e-16,0,0,0,0,0,0
2.066025,1.580247,-10.739575,1.891618e-12,0,0,1.891618e-12,-2.220446e-16,2.220446e-16,-4.238072e-17,0,0,0,0,2.26053e-16,-2.26053e-16,2.26053e-16,-39.59708,3.014039e-16,2.610234e-16,0,0,0,0,0,0
2.113316,1.580247,-10.763416,1.891618e-12,0,0,1.891618e-12,-1.110223e-16,2.220446e-16,2.793744e-17,0,0,0,0,2.243717e-16,-1.133494e-16,1.688606e-16,-49.761597,2.251474e-16,1.984643e-16,0,0,0,0,0,0
2.160606,1.580247,-10.778738,1.891618e-12,0,0,1.891618e-12,-1.110223e-16,2.220446e-16,-5.405187e-18,0,0,0,0,2.221323e-16,-1.1111e-16,1.666211e-16,-44.070499,2.221615e-16,1.959244e-16,0,0,0,0,0,0
2.207896,1.580247,-10.784898,1.891618e-12,0,0,1.891618e-12,-2.220446e-16,-1.110223e-16,-5.110212e-18,0,0,0,0,-1.107876e-16,-2.222793e-16,5.574587e-17,-42.370163,7.432783e-17,1.283332e-16,0,0,0,0,0,0
2.255187,1.580247,-10.787296,1.891618e-12,0,0,1.891618e-12,0,0,1.140782e-17,0,0,0,0,1.140782e-17,-1.140782e-17,1.140782e-17,90,1.521043e-17,1.317262e-17,0,0,0,0,0,0
2.302477,1.580247,-10.789158,1.891618e-12,0,0,1.891618e-12,2.220446e-16,-2.220446e-16,2.741972e-17,0,0,0,0,2.237312e-16,-2.237312e-16,2.237312e-16,48.519836,2.983082e-16,2.583425e-16,0,0,0,0,0,0
2.349768,1.580247,-10.792781,1.891618e-12,0,0,1.891618e-12,-1.110223e-16,-1.110223e-16,-1.779636e-17,0,0,0,0,-9.322594e-17,-1.288187e-16,1.779636e-17,0,2.372848e-17,7.681459e-17,0,0,0,0,0,0
2.397058,1.580247,-10.797866,1.891618e-12,0,0,1.891618e-12,2.220446e-16,2.220446e-16,3.664229e-18,0,0,0,0,2.257088e-16,2.183804e-16,3.664229e-18,90,4.885638e-18,1.480902e-16,0,0,0,0,0,0
2.444349,1.580247,-10.801598,1.891618e-12,0,0,1.891618e-12,2.220446e-16,2.220446e-16,1.781754e-17,0,0,0,0,2.398622e-16,2.042271e-16,1.781754e-17,90,2.375672e-17,1.494526e-16,0,0,0,0,0,0
2.491639,1.580247,-10.802715,1.891618e-12,0,0,1.891618e-12,-2.220446e-16,-1.110223e-16,-2.073588e-17,0,0,0,0,-1.072758e-16,-2.257911e-16,5.925761e-17,-34.758553,7.901015e-17,1.304144e-16,0,0,0,0,0,0
2.53893,1.580247,-10.801885,1.891618e-12,0,0,1.891618e-12,4.440892e-16,0,6.799668e-18,0,0,0,0,4.441933e-16,-1.040887e-19,2.221487e-16,45.87701,2.961983e-16,2.961636e-16,0,0,0,0,0,0
2.58622,1.580247,-10.798943,1.891618e-12,0,0,1.891618e-12,2.220446e-16,2.220446e-16,-2.409323e-17,0,0,0,0,2.461378e-16,1.979514e-16,2.409323e-17,0,3.212431e-17,1.506213e-16,0,0,0,0,0,0
2.633511,1.580247,-10.794589,1.891618e-12,0,0,1.891618e-12,0,0,-2.943456e-17,0,0,0,0,2.943456e-17,-2.943456e-17,2.943456e-17,0,3.924608e-17,3.39881e-17,0,0,0,0,0,0
2.680801,1.580247,-10.788758,1.891618e-12,0,0,1.891618e-12,-2.220446e-16,-2.220446e-16,1.536707e-17,0,0,0,0,-2.066775e-16,-2.374117e-16,1.536707e-17,90,2.048943e-17,1.490895e-16,0,0,0,0,0,0
2.728091,1.580247,-10.78032,1.891618e-12,0,0,1.891618e-12,2.220446e-16,0,-1.401388e-17,0,0,0,0,2.229256e-16,-8.809616e-19,1.119033e-16,41.40292,1.492044e-16,1.489116e-16,0,0,0,0,0,0
2.775382,1.580247,-10.767845,1.891618e-12,0,0,1.891618e-12,-1.110223e-16,0,-1.831258e-18,0,0,0,0,3.019749e-20,-1.110525e-16,5.554135e-17,-44.055279,7.405513e-17,7.404507e-17,0,0,0,0,0,0
2.822672,1.580247,-10.75111,1.891618e-12,0,0,1.891618e-12,0,2.220446e-16,-5.770439e-17,0,0,0,0,2.361452e-16,-1.410063e-17,1.251229e-16,-31.268311,1.668306e-16,1.623346e-16,0,0,0,0,0,0
2.869963,1.580247,-10.731364,1.891618e-12,0,0,1.891618e-12,-1.110223e-16,-1.110223e-16,-1.472563e-17,0,0,0,0,-9.629667e-17,-1.257479e-16,1.472563e-17,0,1.963418e-17,7.594292e-17,0,0,0,0,0,0
2.917253,1.580247,-10.710422,1.891618e-12,0,0,1.891618e-12,2.220446e-16,-2.220446e-16,-2.120023e-17,0,0,0,0,2.230544e-16,-2.230544e-16,2.230544e-16,42.273041,2.974058e-16,2.57561e-16,0,0,0,0,0,0
2.964544,1.580247,-10.689278,1.891618e-12,0,0,1.891618e-12,2.220446e-16,-1.110223e-16,-1.702799e-17,0,0,0,0,2.229129e-16,-1.118906e-16,1.674017e-16,42.080906,2.232023e-16,1.968096e-16,0,0,0,0,0,0
3.011834,1.580247,-10.666806,1.891618e-12,0,0,1.891618e-12,2.220446e-16,0,1.847409e-17,0,0,0,0,2.235711e-16,-1.526548e-18,1.125489e-16,49.723724,1.500651e-16,1.495589e-16,0,0,0,0,0,0
3.059125,1.580247,-10.640694,1.891618e-12,0,0,1.891618e-12,0,2.220446e-16,-1.522818e-17,0,0,0,0,2.230841e-16,-1.039506e-18,1.120618e-16,-41.094933,1.494157e-16,1.490705e-16,0,0,0,0,0,0
3.106415,1.580247,-10.608508,1.891618e-12,0,0,1.891618e-12,0,2.220446e-16,2.152318e-17,0,0,0,0,2.241117e-16,-2.067039e-18,1.130893e-16,-50.485737,1.507858e-16,1.501015e-16,0,0,0,0,0,0
3.153705,1.580247,-10.569284,1.891618e-12,0,0,1.891618e-12,0,2.220446e-16,5.809401e-17,0,0,0,0,2.363254e-16,-1.428079e-17,1.253031e-16,-58.81073,1.670708e-16,1.625198e-16,0,0,0,0,0,0
3.200996,1.580247,-10.525626,1.891618e-12,0,0,1.891618e-12,-2.220446e-16,-1.110223e-16,4.160977e-17,0,0,0,0,-9.715867e-17,-2.359082e-16,6.937478e-17,-63.427155,9.249971e-17,1.369054e-16,0,0,0,0,0,0
3.248286,1.580247,-10.477598,1.891618e-12,0,0,1.891618e-12,-2.220446e-16,-1.110223e-16,5.324348e-17,0,0,0,0,-8.96156e-17,-2.434513e-16,7.691786e-17,-66.90274,1.025571e-16,1.421774e-16,0,0,0,0,0,0
3.295577,1.580247,-10.426089,1.891618e-12,0,0,1.891618e-12,2.220446e-16,-1.110223e-16,-2.064584e-17,0,0,0,0,2.233195e-16,-1.122972e-16,1.678083e-16,41.466434,2.237445e-16,1.972707e-16,0,0,0,0,0,0
3.342867,1.580247,-10.367692,1.891618e-12,0,0,1.891618e-12,0,-1.110223e-16,5.885238e-18,0,0,0,0,3.111019e-19,-1.113334e-16,5.582225e-17,48.025917,7.442967e-17,7.432619e-17,0,0,0,0,0,0
3.390158,1.580247,-10.308012,1.891618e-12,0,0,1.891618e-12,2.220446e-16,4.440892e-16,-9.619755e-17,0,0,0,0,4.799679e-16,1.861659e-16,1.469011e-16,-24.546019,1.958681e-16,2.794227e-16,0,0,0,0,0,0
1.451249,1.532957,-10.075649,1.891618e-12,0,0,1.891618e-12,2.220446e-16,0,4.743357e-17,0,0,0,0,2.31753e-16,-9.70837e-18,1.207307e-16,56.567142,1.609742e-16,1.578377e-16,0,0,0,0,0,0
1.49854,1.532957,-10.156352,1.891618e-12,0,0,1.891618e-12,-1.110223e-16,2.220446e-16,-2.834527e-17,0,0,0,0,2.244397e-16,-1.134174e-16,1.689285e-16,-40.170197,2.25238e-16,1.985414e-16,0,0,0,0,0,0
1.54583,1.532957,-10.258795,1.891618e-12,0,0,1.891618e-12,2.220446e-16,0,-2.311283e-17,0,0,0,0,2.244249e-16,-2.380319e-18,1.134026e-16,39.120014,1.512035e-16,1.504163e-16,0,0,0,0,0,0
1.593121,1.532957,-10.338793,1.891618e-12,0,0,1.891618e-12,2.220446e-16,2.220446e-16,-2.264216e-18,0,0,0,0,2.243088e-16,2.197804e-16,2.264216e-18,0,3.018955e-18,1.480528e-16,0,0,0,0,0,0
1.640411,1.532957,-10.402506,1.891618e-12,0,0,1.891618e-12,2.220446e-16,2.220446e-16,2.807998e-18,0,0,0,0,2.248526e-16,2.192366e-16,2.807998e-18,90,3.743998e-18,1.480652e-16,0,0,0,0,0,0
1.687701,1.532957,-10.456211,1.891618e-12,0,0,1.891618e-12,-2.220446e-16,2.220446e-16,4.212096e-17,0,0,0,0,2.260044e-16,-2.260044e-16,2.260044e-16,-50.370575,3.013392e-16,2.609674e-16,0,0,0,0,0,0
1.734992,1.532957,-10.503537,1.891618e-12,0,0,1.891618e-12,0,-2.220446e-16,4.520077e-18,0,0,0,0,9.197537e-20,-2.221366e-16,1.111143e-16,46.165703,1.481524e-16,1.481217e-16,0,0,0,0,0,0
1.782282,1.532957,-10.546665,1.891618e-12,0,0,1.891618e-12,4.440892e-16,0,4.506426e-17,0,0,0,0,4.48616e-16,-4.526785e-18,2.265714e-16,50.736221,3.020952e-16,3.005976e-16,0,0,0,0,0,0
1.829573,1.532957,-10.586279,1.891618e-12,0,0,1.891618e-12,0,-2.220446e-16,3.999609e-17,0,0,0,0,6.984643e-18,-2.290292e-16,1.180069e-16,54.905849,1.573426e-16,1.550668e-16,0,0,0,0,0,0
1.876863,1.532957,-10.621731,1.891618e-12,0,0,1.891618e-12,0,2.220446e-16,8.607664e-18,0,0,0,0,2.223778e-16,-3.331802e-19,1.113555e-16,-47.216663,1.48474e-16,1.48363e-16,0,0,0,0,0,0
1.924154,1.532957,-10.653484,1.891618e-12,0,0,1.891618e-12,0,-2.220446e-16,-1.382072e-18,0,0,0,0,8.6021e-21,-2.220532e-16,1.110309e-16,44.643391,1.480412e-16,1.480383e-16,0,0,0,0,0,0
1.971444,1.532957,-10.683028,1.891618e-12,0,0,1.891618e-12,0,-1.110223e-16,-4.193565e-17,0,0,0,0,1.405958e-17,-1.250819e-16,6.957073e-17,26.465471,9.276097e-17,8.844772e-17,0,0,0,0,0,0
2.018735,1.532957,-10.711411,1.891618e-12,0,0,1.891618e-12,0,2.220446e-16,1.134085e-19,0,0,0,0,2.220447e-16,-5.792297e-23,1.110224e-16,-45.029263,1.480298e-16,1.480298e-16,0,0,0,0,0,0
2.066025,1.532957,-10.73911,1.891618e-12,0,0,1.891618e-12,-1.110223e-16,2.220446e-16,-2.855896e-17,0,0,0,0,2.244757e-16,-1.134534e-16,1.689645e-16,-40.13448,2.25286e-16,1.985822e-16,0,0,0,0,0,0
2.113316,1.532957,-10.76255,1.891618e-12,0,0,1.891618e-12,0,2.220446e-16,-3.627846e-17,0,0,0,0,2.278216e-16,-5.777005e-18,1.167993e-16,-35.952148,1.557324e-16,1.538429e-16,0,0,0,0,0,0
2.160606,1.532957,-10.778469,1.891618e-12,0,0,1.891618e-12,-2.220446e-16,-2.220446e-16,-4.894207e-18,0,0,0,0,-2.171504e-16,-2.269388e-16,4.894207e-18,0,6.52561e-18,1.481376e-16,0,0,0,0,0,0
2.207896,1.532957,-10.786699,1.891618e-12,0,0,1.891618e-12,-4.440892e-16,-2.220446e-16,3.995904e-17,0,0,0,0,-2.150725e-16,-4.510613e-16,1.179944e-16,-54.897385,1.573259e-16,2.605137e-16,0,0,0,0,0,0
2.255187,1.532957,-10.790996,1.891618e-12,0,0,1.891618e-12,0,2.220446e-16,2.63116e-17,0,0,0,0,2.251199e-16,-3.075253e-18,1.140976e-16,-51.666382,1.521301e-16,1.511154e-16,0,0,0,0,0,0
2.302477,1.532957,-10.794327,1.891618e-12,0,0,1.891618e-12,2.220446e-16,-1.110223e-16,4.319181e-17,0,0,0,0,2.275545e-16,-1.165322e-16,1.720434e-16,52.269882,2.293912e-16,2.020762e-16,0,0,0,0,0,0
2.349768,1.532957,-10.798645,1.891618e-12,0,0,1.891618e-12,2.220446e-16,0,7.773347e-18,0,0,0,0,2.223164e-16,-2.717969e-19,1.112941e-16,47.002544,1.483921e-16,1.483016e-16,0,0,0,0,0,0
2.397058,1.532957,-10.80323,1.891618e-12,0,0,1.891618e-12,-1.110223e-16,-1.110223e-16,5.622911e-17,0,0,0,0,-5.479319e-17,-1.672514e-16,5.622911e-17,90,7.497215e-17,9.845719e-17,0,0,0,0,0,0
2.444349,1.532957,-10.806765,1.891618e-12,0,0,1.891618e-12,0,0,-2.350906e-17,0,0,0,0,2.350906e-17,-2.350906e-17,2.350906e-17,0,3.134541e-17,2.714592e-17,0,0,0,0,0,0
2.491639,1.532957,-10.807752,1.891618e-12,0,0,1.891618e-12,0,-2.220446e-16,-9.231021e-18,0,0,0,0,3.830986e-19,-2.224277e-16,1.114054e-16,42.62352,1.485405e-16,1.48413e-16,0,0,0,0,0,0
2.53893,1.532957,-10.806766,1.891618e-12,0,0,1.891618e-12,2.220446e-16,0,4.555932e-17,0,0,0,0,2.31029e-16,-8.984378e-18,1.200067e-16,56.155689,1.600089e-16,1.570998e-16,0,0,0,0,0,0
2.58622,1.532957,-10.803767,1.891618e-12,0,0,1.891618e-12,0,0,1.92765e-17,0,0,0,0,1.92765e-17,-1.92765e-17,1.92765e-17,90,2.5702e-17,2.225859e-17,0,0,0,0,0,0
2.633511,1.532957,-10.799104,1.891618e-12,0,0,1.891618e-12,2.220446e-16,2.220446e-16,-8.661974e-18,0,0,0,0,2.307066e-16,2.133826e-16,8.661974e-18,0,1.15493e-17,1.483673e-16,0,0,0,0,0,0
2.680801,1.532957,-10.792827,1.891618e-12,0,0,1.891618e-12,-1.110223e-16,-4.440892e-16,-1.265982e-18,0,0,0,0,-1.110175e-16,-4.44094e-16,1.665383e-16,44.782223,2.22051e-16,2.668684e-16,0,0,0,0,0,0
2.728091,1.532957,-10.784233,1.891618e-12,0,0,1.891618e-12,0,-2.220446e-16,2.793471e-17,0,0,0,0,3.460446e-18,-2.255051e-16,1.144827e-16,52.061611,1.526437e-16,1.515034e-16,0,0,0,0,0,0
2.775382,1.532957,-10.771818,1.891618e-12,0,0,1.891618e-12,-1.110223e-16,2.220446e-16,-5.592847e-17,0,0,0,0,2.311852e-16,-1.201629e-16,1.756741e-16,-35.717964,2.342321e-16,2.061991e-16,0,0,0,0,0,0
2.822672,1.532957,-10.755269,1.891618e-12,0,0,1.891618e-12,-1.110223e-16,0,1.268329e-17,0,0,0,0,1.430519e-18,-1.124528e-16,5.694167e-17,-51.435062,7.592223e-17,7.544991e-17,0,0,0,0,0,0
2.869963,1.532957,-10.735862,1.891618e-12,0,0,1.891618e-12,4.440892e-16,-2.220446e-16,5.691945e-17,0,0,0,0,4.489178e-16,-2.268732e-16,3.378955e-16,49.848938,4.505273e-16,3.971264e-16,0,0,0,0,0,0
2.917253,1.532957,-10.714964,1.891618e-12,0,0,1.891618e-12,-1.110223e-16,-1.110223e-16,8.809806e-18,0,0,0,0,-1.022125e-16,-1.198321e-16,8.809806e-18,90,1.174641e-17,7.471067e-17,0,0,0,0,0,0
2.964544,1.532957,-10.693072,1.891618e-12,0,0,1.891618e-12,0,0,-2.707914e-17,0,0,0,0,2.707914e-17,-2.707914e-17,2.707914e-17,0,3.610552e-17,3.12683e-17,0,0,0,0,0,0
3.011834,1.532957,-10.669668,1.891618e-12,0,0,1.891618e-12,0,0,-1.826716e-17,0,0,0,0,1.826716e-17,-1.826716e-17,1.826716e-17,0,2.435621e-17,2.10931e-17,0,0,0,0,0,0
3.059125,1.532957,-10.642885,1.891618e-12,0,0,1.891618e-12,0,2.220446e-16,1.737799e-17,0,0,0,0,2.233964e-16,-1.351832e-18,1.123741e-16,-49.448074,1.498322e-16,1.493836e-16,0,0,0,0,0,0
3.106415,1.532957,-10.611029,1.891618e-12,0,0,1.891618e-12,2.220446e-16,-1.110223e-16,-2.534874e-18,0,0,0,0,2.220639e-16,-1.110416e-16,1.665528e-16,44.563972,2.220703e-16,1.958468e-16,0,0,0,0,0,0
3.153705,1.532957,-10.57343,1.891618e-12,0,0,1.891618e-12,0,0,-1.059858e-17,0,0,0,0,1.059858e-17,-1.059858e-17,1.059858e-17,0,1.413143e-17,1.223818e-17,0,0,0,0,0,0
3.200996,1.532957,-10.531997,1.891618e-12,0,0,1.891618e-12,0,-1.110223e-16,2.652206e-17,0,0,0,0,6.010449e-18,-1.170328e-16,6.15216e-17,57.768742,8.20288e-17,8.010052e-17,0,0,0,0,0,0
3.248286,1.532957,-10.485782,1.891618e-12,0,0,1.891618e-12,-2.220446e-16,2.220446e-16,9.333312e-18,0,0,0,0,2.222407e-16,-2.222407e-16,2.222407e-16,-46.203465,2.963209e-16,2.566214e-16,0,0,0,0,0,0
3.295577,1.532957,-10.434585,1.891618e-12,0,0,1.891618e-12,-3.330669e-16,-3.330669e-16,5.651375e-17,0,0,0,0,-2.765532e-16,-3.895807e-16,5.651375e-17,90,7.535167e-17,2.314351e-16,0,0,0,0,0,0
3.342867,1.532957,-10.379216,1.891618e-12,0,0,1.891618e-12,0,2.220446e-16,-5.914563e-18,0,0,0,0,2.22202e-16,-1.574336e-19,1.111797e-16,-43.475266,1.482396e-16,1.481872e-16,0,0,0,0,0,0
1.451249,1.485666,-10.073057,1.891618e-12,0,0,1.891618e-12,-2.220446e-16,2.220446e-16,-3.077216e-18,0,0,0,0,2.220659e-16,-2.220659e-16,2.220659e-16,-44.603008,2.960879e-16,2.564196e-16,0,0,0,0,0,0
1.49854,1.485666,-10.156616,1.891618e-12,0,0,1.891618e-12,-2.220446e-16,0,-2.06945e-17,0,0,0,0,1.912254e-18,-2.239569e-16,1.129346e-16,-39.720634,1.505794e-16,1.499461e-16,0,0,0,0,0,0
1.54583,1.485666,-10.261008,1.891618e-12,0,0,1.891618e-12,2.220446e-16,-2.220446e-16,7.087628e-18,0,0,0,0,2.221577e-16,-2.221577e-16,2.221577e-16,45.914127,2.962103e-16,2.565256e-16,0,0,0,0,0,0
1.593121,1.485666,-10.341791,1.891618e-12,0,0,1.891618e-12,0,-1.110223e-16,3.697231e-18,0,0,0,0,1.229878e-19,-1.111453e-16,5.563414e-17,46.905231,7.417885e-17,7.413789e-17,0,0,0,0,0,0
1.640411,1.485666,-10.405087,1.891618e-12,0,0,1.891618e-12,2.220446e-16,2.220446e-16,7.997483e-18,0,0,0,0,2.300421e-16,2.140471e-16,7.997483e-18,90,1.066331e-17,1.483175e-16,0,0,0,0,0,0
1.687701,1.485666,-10.45843,1.891618e-12,0,0,1.891618e-12,4.440892e-16,0,4.381759e-17,0,0,0,0,4.483713e-16,-4.282123e-18,2.263267e-16,50.58157,3.01769e-16,3.003518e-16,0,0,0,0,0,0
1.734992,1.485666,-10.506114,1.891618e-12,0,0,1.891618e-12,0,-1.110223e-16,-2.545159e-17,0,0,0,0,5.556609e-18,-1.165789e-16,6.106776e-17,32.684387,8.142368e-17,7.963613e-17,0,0,0,0,0,0
1.782282,1.485666,-10.549815,1.891618e-12,0,0,1.891618e-12,2.220446e-16,2.220446e-16,3.585045e-17,0,0,0,0,2.578951e-16,1.861941e-16,3.585045e-17,90,4.78006e-17,1.537091e-16,0,0,0,0,0,0
1.829573,1.485666,-10.589678,1.891618e-12,0,0,1.891618e-12,-2.220446e-16,-2.220446e-16,-1.485699e-17,0,0,0,0,-2.071876e-16,-2.369016e-16,1.485699e-17,0,1.980931e-17,1.490205e-16,0,0,0,0,0,0
1.876863,1.485666,-10.624823,1.891618e-12,0,0,1.891618e-12,-2.220446e-16,2.220446e-16,-1.803864e-17,0,0,0,0,2.227761e-16,-2.227761e-16,2.227761e-16,-42.67778,2.970348e-16,2.572397e-16,0,0,0,0,0,0
1.924154,1.485666,-10.655714,1.891618e-12,0,0,1.891618e-12,0,-1.110223e-16,8.464503e-18,0,0,0,0,6.416378e-19,-1.116639e-16,5.615279e-17,49.334923,7.487039e-17,7.465742e-17,0,0,0,0,0,0
1.971444,1.485666,-10.684134,1.891618e-12,0,0,1.891618e-12,0,0,2.055402e-17,0,0,0,0,2.055402e-17,-2.055402e-17,2.055402e-17,90,2.740536e-17,2.373374e-17,0,0,0,0,0,0
2.018735,1.485666,-10.710992,1.891618e-12,0,0,1.891618e-12,-1.110223e-16,2.220446e-16,-1.960377e-17,0,0,0,0,2.231945e-16,-1.121722e-16,1.676833e-16,-41.643112,2.235778e-16,1.971289e-16,0,0,0,0,0,0
2.066025,1.485666,-10.737296,1.891618e-12,0,0,1.891618e-12,0,-3.330669e-16,2.852235e-17,0,0,0,0,2.424871e-18,-3.354918e-16,1.689583e-16,49.859406,2.252778e-16,2.244738e-16,0,0,0,0,0,0
2.113316,1.485666,-10.760343,1.891618e-12,0,0,1.891618e-12,2.220446e-16,0,3.825233e-17,0,0,0,0,2.284497e-16,-6.405089e-18,1.174274e-16,54.5056,1.565699e-16,1.544791e-16,0,0,0,0,0,0
2.160606,1.485666,-10.777504,1.891618e-12,0,0,1.891618e-12,0,-1.110223e-16,1.457708e-17,0,0,0,0,1.882046e-18,-1.129043e-16,5.73932e-17,52.356758,7.652427e-17,7.590469e-17,0,0,0,0,0,0
2.207896,1.485666,-10.788439,1.891618e-12,0,0,1.891618e-12,-4.440892e-16,0,-9.067205e-18,0,0,0,0,1.850528e-19,-4.442743e-16,2.222297e-16,-43.830811,2.963062e-16,2.962445e-16,0,0,0,0,0,0
2.255187,1.485666,-10.795801,1.891618e-12,0,0,1.891618e-12,0,-1.110223e-16,-3.220638e-17,0,0,0,0,8.666251e-18,-1.196885e-16,6.41774e-17,29.939306,8.556987e-17,8.283237e-17,0,0,0,0,0,0
2.302477,1.485666,-10.801199,1.891618e-12,0,0,1.891618e-12,-1.110223e-16,0,-1.517027e-17,0,0,0,0,2.035569e-18,-1.130579e-16,5.754672e-17,-37.357616,7.672896e-17,7.605952e-17,0,0,0,0,0,0
2.349768,1.485666,-10.806117,1.891618e-12,0,0,1.891618e-12,0,0,1.320952e-18,0,0,0,0,1.320952e-18,-1.320952e-18,1.320952e-18,90,1.761269e-18,1.525303e-18,0,0,0,0,0,0
2.397058,1.485666,-10.809911,1.891618e-12,0,0,1.891618e-12,0,2.220446e-16,1.916175e-17,0,0,0,0,2.236861e-16,-1.641464e-18,1.126638e-16,-49.89621,1.502184e-16,1.496742e-16,0,0,0,0,0,0
2.444349,1.485666,-10.812636,1.891618e-12,0,0,1.891618e-12,-1.110223e-16,-1.110223e-16,5.730303e-18,0,0,0,0,-1.05292e-16,-1.167526e-16,5.730303e-18,90,7.640403e-18,7.431004e-17,0,0,0,0,0,0
2.491639,1.485666,-10.813082,1.891618e-12,0,0,1.891618e-12,2.220446e-16,2.220446e-16,1.687964e-17,0,0,0,0,2.389243e-16,2.05165e-16,1.687964e-17,90,2.250618e-17,1.493074e-16,0,0,0,0,0,0
2.53893,1.485666,-10.811808,1.891618e-12,0,0,1.891618e-12,2.220446e-16,2.220446e-16,2.390978e-17,0,0,0,0,2.459544e-16,1.981348e-16,2.390978e-17,90,3.187971e-17,1.505823e-16,0,0,0,0,0,0
2.58622,1.485666,-10.808694,1.891618e-12,0,0,1.891618e-12,2.220446e-16,0,-1.381467e-17,0,0,0,0,2.229008e-16,-8.561881e-19,1.118785e-16,41.453529,1.491713e-16,1.488867e-16,0,0,0,0,0,0
2.633511,1.485666,-10.803694,1.891618e-12,0,0,1.891618e-12,0,2.220446e-16,-6.115843e-18,0,0,0,0,2.222129e-16,-1.68323e-19,1.111906e-16,-43.423477,1.482542e-16,1.481981e-16,0,0,0,0,0,0
2.680801,1.485666,-10.796873,1.891618e-12,0,0,1.891618e-12,2.220446e-16,2.220446e-16,-8.366066e-18,0,0,0,0,2.304107e-16,2.136785e-16,8.366066e-18,0,1.115475e-17,1.483446e-16,0,0,0,0,0,0
2.728091,1.485666,-10.788096,1.891618e-12,0,0,1.891618e-12,2.220446e-16,0,3.348303e-17,0,0,0,0,2.269838e-16,-4.939177e-18,1.159615e-16,53.39135,1.546153e-16,1.529955e-16,0,0,0,0,0,0
2.775382,1.485666,-10.775889,1.891618e-12,0,0,1.891618e-12,0,-1.110223e-16,-3.75052e-18,0,0,0,0,1.265546e-19,-1.111489e-16,5.56377e-17,43.06739,7.418361e-17,7.414146e-17,0,0,0,0,0,0
2.822672,1.485666,-10.759871,1.891618e-12,0,0,1.891618e-12,4.440892e-16,0,-2.400317e-17,0,0,0,0,4.453828e-16,-1.293611e-18,2.233382e-16,41.915123,2.977843e-16,2.97354e-16,0,0,0,0,0,0
2.869963,1.485666,-10.741199,1.891618e-12,0,0,1.891618e-12,0,2.220446e-16,2.207072e-17,0,0,0,0,2.242171e-16,-2.172523e-18,1.131948e-16,-50.621777,1.509264e-16,1.502075e-16,0,0,0,0,0,0
2.917253,1.485666,-10.720566,1.891618e-12,0,0,1.891618e-12,0,2.220446e-16,5.706585e-18,0,0,0,0,2.221912e-16,-1.465635e-19,1.111689e-16,-46.471218,1.482252e-16,1.481763e-16,0,0,0,0,0,0
2.964544,1.485666,-10.698034,1.891618e-12,0,0,1.891618e-12,2.220446e-16,-2.220446e-16,3.610553e-17,0,0,0,0,2.249609e-16,-2.249609e-16,2.249609e-16,49.61787,2.999479e-16,2.597625e-16,0,0,0,0,0,0
3.011834,1.485666,-10.673503,1.891618e-12,0,0,1.891618e-12,2.220446e-16,-1.110223e-16,6.25684e-18,0,0,0,0,2.221621e-16,-1.111398e-16,1.66651e-16,46.075825,2.222013e-16,1.959582e-16,0,0,0,0,0,0
3.059125,1.485666,-10.64564,1.891618e-12,0,0,1.891618e-12,-1.110223e-16,0,-4.639783e-17,0,0,0,0,1.683694e-17,-1.278592e-16,7.234809e-17,-25.055071,9.646412e-17,9.137038e-17,0,0,0,0,0,0
3.106415,1.485666,-10.613538,1.891618e-12,0,0,1.891618e-12,2.220446e-16,2.220446e-16,3.013435e-18,0,0,0,0,2.25058e-16,2.190312e-16,3.013435e-18,90,4.017913e-18,1.480706e-16,0,0,0,0,0,0
3.153705,1.485666,-10.577152,1.891618e-12,0,0,1.891618e-12,2.220446e-16,0,-9.418455e-18,0,0,0,0,2.224434e-16,-3.987859e-19,1.114211e-16,42.575493,1.485615e-16,1.484287e-16,0,0,0,0,0,0
3.200996,1.485666,-10.537718,1.891618e-12,0,0,1.891618e-12,0,-4.440892e-16,-3.726805e-17,0,0,0,0,3.10582e-18,-4.47195e-16,2.251504e-16,40.23613,3.002006e-16,2.991707e-16,0,0,0,0,0,0
3.248286,1.485666,-10.493186,1.891618e-12,0,0,1.891618e-12,2.220446e-16,-1.110223e-16,4.308876e-17,0,0,0,0,2.275287e-16,-1.165064e-16,1.720175e-16,52.253269,2.293567e-16,2.020468e-16,0,0,0,0,0,0
3.295577,1.485666,-10.44774,1.891618e-12,0,0,1.891618e-12,0,2.220446e-16,-1.712911e-18,0,0,0,0,2.220578e-16,-1.321307e-20,1.110355e-16,-44.558041,1.480474e-16,1.480429e-16,0,0,0,0,0,0
1.451249,1.438376,-10.065009,1.891618e-12,0,0,1.891618e-12,-2.220446e-16,2.220446e-16,1.077736e-16,0,0,0,0,2.468177e-16,-2.468177e-16,2.468177e-16,-57.945259,3.290902e-16,2.850005e-16,0,0,0,0,0,0
1.49854,1.438376,-10.151513,1.891618e-12,0,0,1.891618e-12,0,-2.220446e-16,5.664758e-17,0,0,0,0,1.361678e-17,-2.356614e-16,1.246391e-16,58.516155,1.661854e-16,1.618376e-16,0,0,0,0,0,0
1.54583,1.438376,-10.258663,1.891618e-12,0,0,1.891618e-12,0,-1.110223e-16,-1.070624e-17,0,0,0,0,1.023011e-18,-1.120453e-16,5.653416e-17,39.541801,7.537888e-17,7.50402e-17,0,0,0,0,0,0
1.593121,1.438376,-10.340676,1.891618e-12,0,0,1.891618e-12,2.220446e-16,-1.110223e-16,-1.208812e-17,0,0,0,0,2.224828e-16,-1.114604e-16,1.669716e-16,42.924183,2.226288e-16,1.963218e-16,0,0,0,0,0,0
1.640411,1.438376,-10.404563,1.891618e-12,0,0,1.891618e-12,2.220446e-16,-1.110223e-16,-3.468349e-18,0,0,0,0,2.220807e-16,-1.110584e-16,1.665696e-16,44.403442,2.220928e-16,1.958659e-16,0,0,0,0,0,0
1.687701,1.438376,-10.458262,1.891618e-12,0,0,1.891618e-12,0,2.220446e-16,1.318138e-18,0,0,0,0,2.220524e-16,-7.824678e-21,1.110301e-16,-45.340115,1.480402e-16,1.480376e-16,0,0,0,0,0,0
1.734992,1.438376,-10.506577,1.891618e-12,0,0,1.891618e-12,-3.330669e-16,-1.110223e-16,4.796192e-17,0,0,0,0,-1.011054e-16,-3.429838e-16,1.209392e-16,-56.682236,1.612523e-16,2.035056e-16,0,0,0,0,0,0
1.782282,1.438376,-10.551183,1.891618e-12,0,0,1.891618e-12,2.220446e-16,0,-1.43003e-17,0,0,0,0,2.229618e-16,-9.171912e-19,1.119395e-16,41.330196,1.492527e-16,1.489479e-16,0,0,0,0,0,0
1.829573,1.438376,-10.591749,1.891618e-12,0,0,1.891618e-12,-4.440892e-16,0,3.232544e-18,0,0,0,0,2.352857e-20,-4.441127e-16,2.220681e-16,-45.41703,2.960908e-16,2.96083e-16,0,0,0,0,0,0
1.876863,1.438376,-10.627461,1.891618e-12,0,0,1.891618e-12,0,2.220446e-16,3.22603e-17,0,0,0,0,2.266367e-16,-4.59205e-18,1.156143e-16,-53.101269,1.541525e-16,1.526448e-16,0,0,0,0,0,0
1.924154,1.438376,-10.658683,1.891618e-12,0,0,1.891618e-12,2.220446e-16,-1.110223e-16,-1.580523e-18,0,0,0,0,2.220521e-16,-1.110298e-16,1.66541e-16,44.728119,2.220546e-16,1.958334e-16,0,0,0,0,0,0
1.971444,1.438376,-10.68661,1.891618e-12,0,0,1.891618e-12,-1.110223e-16,0,3.95285e-17,0,0,0,0,1.263568e-17,-1.23658e-16,6.814683e-17,-62.726997,9.086244e-17,8.69571e-17,0,0,0,0,0,0
2.018735,1.438376,-10.712159,1.891618e-12,0,0,1.891618e-12,-2.220446e-16,-1.110223e-16,-2.970208e-17,0,0,0,0,-1.035755e-16,-2.294914e-16,6.295793e-17,-30.925159,8.394391e-17,1.32706e-16,0,0,0,0,0,0
2.113316,1.438376,-10.759831,1.891618e-12,0,0,1.891618e-12,2.220446e-16,-1.110223e-16,3.32373e-18,0,0,0,0,2.220778e-16,-1.110555e-16,1.665666e-16,45.57169,2.220888e-16,1.958625e-16,0,0,0,0,0,0
2.160606,1.438376,-10.778133,1.891618e-12,0,0,1.891618e-12,0,2.220446e-16,-2.891259e-17,0,0,0,0,2.257476e-16,-3.702977e-18,1.147253e-16,-37.701584,1.52967e-16,1.517478e-16,0,0,0,0,0,0
2.207896,1.438376,-10.791388,1.891618e-12,0,0,1.891618e-12,-1.110223e-16,0,-2.272972e-17,0,0,0,0,4.473248e-18,-1.154955e-16,5.99844e-17,-33.866375,7.99792e-17,7.85306e-17,0,0,0,0,0,0
2.255187,1.438376,-10.801179,1.891618e-12,0,0,1.891618e-12,0,2.220446e-16,-1.2361e-17,0,0,0,0,2.227306e-16,-6.860049e-19,1.117083e-16,-41.823483,1.489444e-16,1.487163e-16,0,0,0,0,0,0
2.302477,1.438376,-10.807878,1.891618e-12,0,0,1.891618e-12,0,-1.110223e-16,5.9954e-17,0,0,0,0,2.619546e-17,-1.372178e-16,8.170662e-17,68.601768,1.089422e-16,1.013452e-16,0,0,0,0,0,0
2.349768,1.438376,-10.812734,1.891618e-12,0,0,1.891618e-12,2.220446e-16,-1.110223e-16,2.883561e-17,0,0,0,0,2.245227e-16,-1.135003e-16,1.690115e-16,49.911739,2.253486e-16,1.986355e-16,0,0,0,0,0,0
2.397058,1.438376,-10.815369,1.891618e-12,0,0,1.891618e-12,2.220446e-16,-1.110223e-16,1.539789e-17,0,0,0,0,2.227549e-16,-1.117326e-16,1.672438e-16,47.641308,2.229917e-16,1.966304e-16,0,0,0,0,0,0
2.444349,1.438376,-10.816836,1.891618e-12,0,0,1.891618e-12,-1.110223e-16,2.220446e-16,3.788547e-17,0,0,0,0,2.262996e-16,-1.152773e-16,1.707885e-16,-51.40818,2.27718e-16,2.006518e-16,0,0,0,0,0,0
2.491639,1.438376,-10.816894,1.891618e-12,0,0,1.891618e-12,-1.110223e-16,0,-1.143521e-17,0,0,0,0,1.165581e-18,-1.121879e-16,5.667673e-17,-39.179993,7.556898e-17,7.518346e-17,0,0,0,0,0,0
2.53893,1.438376,-10.815827,1.891618e-12,0,0,1.891618e-12,2.220446e-16,2.220446e-16,-3.870503e-17,0,0,0,0,2.607496e-16,1.833396e-16,3.870503e-17,0,5.160671e-17,1.546294e-16,0,0,0,0,0,0
2.58622,1.438376,-10.812869,1.891618e-12,0,0,1.891618e-12,2.220446e-16,0,4.237083e-17,0,0,0,0,2.298551e-16,-7.810517e-18,1.188328e-16,55.444492,1.584438e-16,1.559055e-16,0,0,0,0,0,0
2.633511,1.438376,-10.80783,1.891618e-12,0,0,1.891618e-12,-1.110223e-16,2.220446e-16,3.401784e-17,0,0,0,0,2.254835e-16,-1.144612e-16,1.699724e-16,-50.772499,2.266298e-16,1.997257e-16,0,0,0,0,0,0
2.680801,1.438376,-10.800716,1.891618e-12,0,0,1.891618e-12,0,-2.220446e-16,1.991351e-17,0,0,0,0,1.771755e-18,-2.238164e-16,1.127941e-16,50.084362,1.503921e-16,1.49805e-16,0,0,0,0,0,0
2.728091,1.438376,-10.791459,1.891618e-12,0,0,1.891618e-12,2.220446e-16,2.220446e-16,-1.653021e-17,0,0,0,0,2.385748e-16,2.055144e-16,1.653021e-17,0,2.204027e-17,1.492553e-16,0,0,0,0,0,0
2.775382,1.438376,-10.779253,1.891618e-12,0,0,1.891618e-12,2.220446e-16,-2.220446e-16,1.939126e-17,0,0,0,0,2.228897e-16,-2.228897e-16,2.228897e-16,47.495502,2.971863e-16,2.573709e-16,0,0,0,0,0,0
2.822672,1.438376,-10.763748,1.891618e-12,0,0,1.891618e-12,0,0,-4.766562e-18,0,0,0,0,4.766562e-18,-4.766562e-18,4.766562e-18,0,6.355416e-18,5.503952e-18,0,0,0,0,0,0
2.869963,1.438376,-10.745933,1.891618e-12,0,0,1.891618e-12,-1.110223e-16,-4.440892e-16,-2.044515e-17,0,0,0,0,-1.09772e-16,-4.453395e-16,1.677838e-16,41.500439,2.237117e-16,2.679066e-16,0,0,0,0,0,0
2.917253,1.438376,-10.725863,1.891618e-12,0,0,1.891618e-12,-3.330669e-16,2.220446e-16,3.261846e-17,0,0,0,0,2.239547e-16,-3.34977e-16,2.794658e-16,-48.351337,3.726211e-16,3.248145e-16,0,0,0,0,0,0
2.964544,1.438376,-10.703068,1.891618e-12,0,0,1.891618e-12,2.220446e-16,2.220446e-16,5.487777e-17,0,0,0,0,2.769224e-16,1.671668e-16,5.487777e-17,90,7.317037e-17,1.610224e-16,0,0,0,0,0,0
3.011834,1.438376,-10.677429,1.891618e-12,0,0,1.891618e-12,2.220446e-16,0,1.006458e-17,0,0,0,0,2.224999e-16,-4.55262e-19,1.114776e-16,47.589958,1.486367e-16,1.484852e-16,0,0,0,0,0,0
3.059125,1.438376,-10.648421,1.891618e-12,0,0,1.891618e-12,0,2.220446e-16,-1.335278e-17,0,0,0,0,2.228447e-16,-8.000946e-19,1.118224e-16,-41.570953,1.490965e-16,1.488305e-16,0,0,0,0,0,0
3.106415,1.438376,-10.615783,1.891618e-12,0,0,1.891618e-12,2.220446e-16,-1.110223e-16,-1.891829e-17,0,0,0,0,2.231157e-16,-1.120934e-16,1.676046e-16,41.759476,2.234728e-16,1.970396e-16,0,0,0,0,0,0
3.153705,1.438376,-10.579987,1.891618e-12,0,0,1.891618e-12,4.440892e-16,0,-2.899188e-17,0,0,0,0,4.459739e-16,-1.884704e-18,2.239293e-16,41.280548,2.985724e-16,2.979462e-16,0,0,0,0,0,0
3.200996,1.438376,-10.541705,1.891618e-12,0,0,1.891618e-12,2.220446e-16,2.220446e-16,-3.725803e-18,0,0,0,0,2.257704e-16,2.183188e-16,3.725803e-18,0,4.967737e-18,1.480922e-16,0,0,0,0,0,0
3.248286,1.438376,-10.498626,1.891618e-12,0,0,1.891618e-12,0,0,-6.14633e-18,0,0,0,0,6.14633e-18,-6.14633e-18,6.14633e-18,0,8.195107e-18,7.097171e-18,0,0,0,0,0,0
3.295577,1.438376,-10.44919,1.891618e-12,0,0,1.891618e-12,0,2.220446e-16,-4.252534e-17,0,0,0,0,2.299103e-16,-7.865694e-18,1.18888e-16,-34.520725,1.585173e-16,1.559616e-16,0,0,0,0,0,0
3.342867,1.438376,-10.406431,1.891618e-12,0,0,1.891618e-12,0,2.220446e-16,1.6848e-17,0,0,0,0,2.233157e-16,-1.271093e-18,1.122934e-16,-49.314491,1.497245e-16,1.493026e-16,0,0,0,0,0,0
1.451249,1.391085,-10.055524,1.891618e-12,0,0,1.891618e-12,4.440892e-16,0,-1.054489e-17,0,0,0,0,4.443395e-16,-2.502473e-19,2.222949e-16,43.640533,2.963931e-16,2.963098e-16,0,0,0,0,0,0
1.49854,1.391085,-10.14478,1.891618e-12,0,0,1.891618e-12,-1.110223e-16,-2.220446e-16,5.937921e-17,0,0,0,0,-8.524767e-17,-2.478192e-16,8.128578e-17,68.464134,1.08381e-16,1.453815e-16,0,0,0,0,0,0
1.54583,1.391085,-10.254521,1.891618e-12,0,0,1.891618e-12,-1.110223e-16,2.220446e-16,2.992874e-17,0,0,0,0,2.247126e-16,-1.136903e-16,1.692014e-16,-50.094109,2.256019e-16,1.98851e-16,0,0,0,0,0,0
1.593121,1.391085,-10.33757,1.891618e-12,0,0,1.891618e-12,-3.330669e-16,0,-3.753936e-17,0,0,0,0,4.178568e-18,-3.372455e-16,1.70712e-16,-38.648457,2.27616e-16,2.26236e-16,0,0,0,0,0,0
1.640411,1.391085,-10.402528,1.891618e-12,0,0,1.891618e-12,0,2.220446e-16,1.184967e-17,0,0,0,0,2.226752e-16,-6.305806e-19,1.116529e-16,-48.046124,1.488705e-16,1.486608e-16,0,0,0,0,0,0
1.687701,1.391085,-10.456884,1.891618e-12,0,0,1.891618e-12,0,-1.110223e-16,1.855982e-17,0,0,0,0,3.020507e-18,-1.140428e-16,5.853166e-17,54.243526,7.804221e-17,7.705511e-17,0,0,0,0,0,0
1.734992,1.391085,-10.505569,1.891618e-12,0,0,1.891618e-12,0,2.220446e-16,-6.211184e-18,0,0,0,0,2.222182e-16,-1.736078e-19,1.111959e-16,-43.398952,1.482612e-16,1.482034e-16,0,0,0,0,0,0
1.782282,1.391085,-10.550658,1.891618e-12,0,0,1.891618e-12,0,2.220446e-16,1.485906e-17,0,0,0,0,2.230345e-16,-9.899433e-19,1.120122e-16,-48.811539,1.493497e-16,1.490208e-16,0,0,0,0,0,0
1.829573,1.391085,-10.592156,1.891618e-12,0,0,1.891618e-12,0,0,-4.990718e-18,0,0,0,0,4.990718e-18,-4.990718e-18,4.990718e-18,0,6.654291e-18,5.762785e-18,0,0,0,0,0,0
1.876863,1.391085,-10.629001,1.891618e-12,0,0,1.891618e-12,0,-2.220446e-16,2.205389e-17,0,0,0,0,2.169241e-18,-2.242139e-16,1.131915e-16,50.617596,1.509221e-16,1.502042e-16,0,0,0,0,0,0
1.924154,1.391085,-10.661053,1.891618e-12,0,0,1.891618e-12,2.220446e-16,2.220446e-16,3.00716e-17,0,0,0,0,2.521162e-16,1.91973e-16,3.00716e-17,90,4.009547e-17,1.520478e-16,0,0,0,0,0,0
1.971444,1.391085,-10.689251,1.891618e-12,0,0,1.891618e-12,-2.220446e-16,0,7.26635e-18,0,0,0,0,2.375353e-19,-2.222821e-16,1.112598e-16,-46.872318,1.483465e-16,1.482673e-16,0,0,0,0,0,0
2.018735,1.391085,-10.714458,1.891618e-12,0,0,1.891618e-12,-1.110223e-16,2.220446e-16,-9.504707e-18,0,0,0,0,2.223156e-16,-1.112933e-16,1.668045e-16,-43.366726,2.22406e-16,1.961322e-16,0,0,0,0,0,0
2.066025,1.391085,-10.738656,1.891618e-12,0,0,1.891618e-12,0,-1.110223e-16,-3.163402e-17,0,0,0,0,8.38094e-18,-1.194032e-16,6.389209e-17,30.161285,8.518946e-17,8.253776e-17,0,0,0,0,0,0
2.113316,1.391085,-10.760694,1.891618e-12,0,0,1.891618e-12,-1.110223e-16,2.220446e-16,-3.710908e-17,0,0,0,0,2.261291e-16,-1.151068e-16,1.706179e-16,-38.718937,2.274906e-16,2.004583e-16,0,0,0,0,0,0
2.160606,1.391085,-10.779226,1.891618e-12,0,0,1.891618e-12,0,0,-1.82228e-17,0,0,0,0,1.82228e-17,-1.82228e-17,1.82228e-17,0,2.429706e-17,2.104187e-17,0,0,0,0,0,0
2.207896,1.391085,-10.793569,1.891618e-12,0,0,1.891618e-12,-1.110223e-16,2.220446e-16,-7.751052e-17,0,0,0,0,2.391991e-16,-1.281768e-16,1.83688e-16,-32.520538,2.449173e-16,2.153089e-16,0,0,0,0,0,0
2.255187,1.391085,-10.804834,1.891618e-12,0,0,1.891618e-12,4.440892e-16,0,-4.507429e-18,0,0,0,0,4.441349e-16,-4.574492e-20,2.220903e-16,44.418537,2.961205e-16,2.961052e-16,0,0,0,0,0,0
2.302477,1.391085,-10.812119,1.891618e-12,0,0,1.891618e-12,-1.110223e-16,-2.220446e-16,-3.047806e-17,0,0,0,0,-1.032057e-16,-2.298612e-16,6.332772e-17,30.615643,8.443696e-17,1.329404e-16,0,0,0,0,0,0
2.349768,1.391085,-10.816324,1.891618e-12,0,0,1.891618e-12,0,2.220446e-16,3.452864e-17,0,0,0,0,2.2729e-16,-5.2454e-18,1.162677e-16,-53.638012,1.550236e-16,1.53305e-16,0,0,0,0,0,0
2.397058,1.391085,-10.817814,1.891618e-12,0,0,1.891618e-12,2.220446e-16,0,-2.779321e-18,0,0,0,0,2.220794e-16,-3.478317e-20,1.110571e-16,44.282982,1.480761e-16,1.480645e-16,0,0,0,0,0,0
2.444349,1.391085,-10.818226,1.891618e-12,0,0,1.891618e-12,2.220446e-16,2.220446e-16,-1.482095e-17,0,0,0,0,2.368656e-16,2.072237e-16,1.482095e-17,0,1.976127e-17,1.490157e-16,0,0,0,0,0,0
2.491639,1.391085,-10.818368,1.891618e-12,0,0,1.891618e-12,-1.110223e-16,0,1.08814e-18,0,0,0,0,1.066394e-20,-1.11033e-16,5.552181e-17,-45.561489,7.402908e-17,7.402553e-17,0,0,0,0,0,0
2.53893,1.391085,-10.818204,1.891618e-12,0,0,1.891618e-12,-1.110223e-16,2.220446e-16,-5.469135e-17,0,0,0,0,2.307953e-16,-1.19773e-16,1.752842e-16,-35.909637,2.337122e-16,2.057562e-16,0,0,0,0,0,0
2.58622,1.391085,-10.816258,1.891618e-12,0,0,1.891618e-12,0,0,-1.180129e-17,0,0,0,0,1.180129e-17,-1.180129e-17,1.180129e-17,0,1.573505e-17,1.362695e-17,0,0,0,0,0,0
2.633511,1.391085,-10.811815,1.891618e-12,0,0,1.891618e-12,2.220446e-16,-1.110223e-16,-8.579553e-18,0,0,0,0,2.222655e-16,-1.112432e-16,1.667543e-16,43.525406,2.223391e-16,1.960754e-16,0,0,0,0,0,0
2.680801,1.391085,-10.804635,1.891618e-12,0,0,1.891618e-12,-1.110223e-16,-1.110223e-16,3.342936e-17,0,0,0,0,-7.759294e-17,-1.444517e-16,3.342936e-17,90,4.457249e-17,8.347592e-17,0,0,0,0,0,0
2.728091,1.391085,-10.794769,1.891618e-12,0,0,1.891618e-12,0,-1.110223e-16,1.75077e-18,0,0,0,0,2.760197e-20,-1.110499e-16,5.553875e-17,45.903229,7.405167e-17,7.404247e-17,0,0,0,0,0,0
2.775382,1.391085,-10.782241,1.891618e-12,0,0,1.891618e-12,0,0,1.36959e-18,0,0,0,0,1.36959e-18,-1.36959e-18,1.36959e-18,90,1.826121e-18,1.581467e-18,0,0,0,0,0,0
2.822672,1.391085,-10.766874,1.891618e-12,0,0,1.891618e-12,0,0,2.849273e-17,0,0,0,0,2.849273e-17,-2.849273e-17,2.849273e-17,90,3.799031e-17,3.290057e-17,0,0,0,0,0,0
2.869963,1.391085,-10.749615,1.891618e-12,0,0,1.891618e-12,2.220446e-16,-4.440892e-16,-1.56741e-17,0,0,0,0,2.224132e-16,-4.444578e-16,3.334355e-16,43.652828,4.445807e-16,3.920678e-16,0,0,0,0,0,0
2.917253,1.391085,-10.730047,1.891618e-12,0,0,1.891618e-12,-2.220446e-16,-1.110223e-16,-1.853918e-19,0,0,0,0,-1.11022e-16,-2.220449e-16,5.551146e-17,-44.904324,7.401528e-17,1.281977e-16,0,0,0,0,0,0
2.964544,1.391085,-10.70733,1.891618e-12,0,0,1.891618e-12,-1.110223e-16,-1.110223e-16,-1.814018e-17,0,0,0,0,-9.288212e-17,-1.291625e-16,1.814018e-17,0,2.418691e-17,7.692175e-17,0,0,0,0,0,0
3.011834,1.391085,-10.681008,1.891618e-12,0,0,1.891618e-12,-2.220446e-16,2.220446e-16,-5.385133e-18,0,0,0,0,2.221099e-16,-2.221099e-16,2.221099e-16,-44.305355,2.961465e-16,2.564704e-16,0,0,0,0,0,0
3.059125,1.391085,-10.651274,1.891618e-12,0,0,1.891618e-12,-2.220446e-16,2.220446e-16,2.517088e-18,0,0,0,0,2.220589e-16,-2.220589e-16,2.220589e-16,-45.324738,2.960785e-16,2.564115e-16,0,0,0,0,0,0
3.106415,1.391085,-10.618265,1.891618e-12,0,0,1.891618e-12,-2.220446e-16,-1.110223e-16,1.362577e-17,0,0,0,0,-1.093745e-16,-2.236924e-16,5.715898e-17,-51.89558,7.621197e-17,1.291594e-16,0,0,0,0,0,0
3.153705,1.391085,-10.582508,1.891618e-12,0,0,1.891618e-12,0,-1.110223e-16,1.535938e-17,0,0,0,0,2.085712e-18,-1.13108e-16,5.759686e-17,52.73312,7.679582e-17,7.611011e-17,0,0,0,0,0,0
3.200996,1.391085,-10.544378,1.891618e-12,0,0,1.891618e-12,-2.220446e-16,2.220446e-16,3.07405e-17,0,0,0,0,2.241624e-16,-2.241624e-16,2.241624e-16,-48.941044,2.988832e-16,2.588405e-16,0,0,0,0,0,0
3.248286,1.391085,-10.501967,1.891618e-12,0,0,1.891618e-12,0,2.220446e-16,-5.991997e-18,0,0,0,0,2.222062e-16,-1.615798e-19,1.111839e-16,-43.455341,1.482452e-16,1.481914e-16,0,0,0,0,0,0
3.295577,1.391085,-10.450737,1.891618e-12,0,0,1.891618e-12,0,-1.110223e-16,2.001241e-17,0,0,0,0,3.49719e-18,-1.145195e-16,5.900834e-17,54.912407,7.867779e-17,7.753835e-17,0,0,0,0,0,0
3.342867,1.391085,-10.400937,1.891618e-12,0,0,1.891618e-12,-2.220446e-16,4.440892e-16,-9.227124e-18,0,0,0,0,4.44217e-16,-2.221724e-16,3.331947e-16,-44.206554,4.442596e-16,3.917948e-16,0,0,0,0,0,0
1.451249,1.343795,-10.049796,1.891618e-12,0,0,1.891618e-12,-2.220446e-16,-1.110223e-16,3.388413e-17,0,0,0,0,-1.014979e-16,-2.31569e-16,6.503555e-17,-60.699993,8.671406e-17,1.340352e-16,0,0,0,0,0,0
1.49854,1.343795,-10.141549,1.891618e-12,0,0,1.891618e-12,-1.110223e-16,-1.110223e-16,1.34238e-17,0,0,0,0,-9.75985e-17,-1.244461e-16,1.34238e-17,90,1.78984e-17,7.562053e-17,0,0,0,0,0,0
1.54583,1.343795,-10.253247,1.891618e-12,0,0,1.891618e-12,2.220446e-16,2.220446e-16,7.191742e-17,0,0,0,0,2.93962e-16,1.501272e-16,7.191742e-17,90,9.588989e-17,1.69732e-16,0,0,0,0,0,0
1.593121,1.343795,-10.336789,1.891618e-12,0,0,1.891618e-12,0,-1.110223e-16,-6.2548e-17,0,0,0,0,2.811744e-17,-1.391397e-16,8.362859e-17,20.794476,1.115048e-16,1.034144e-16,0,0,0,0,0,0
1.640411,1.343795,-10.402232,1.891618e-12,0,0,1.891618e-12,0,-1.110223e-16,9.348156e-18,0,0,0,0,7.816186e-19,-1.118039e-16,5.629277e-17,49.779503,7.505703e-17,7.479785e-17,0,0,0,0,0,0
1.687701,1.343795,-10.456533,1.891618e-12,0,0,1.891618e-12,2.220446e-16,-1.110223e-16,-4.215069e-18,0,0,0,0,2.220979e-16,-1.110756e-16,1.665868e-16,44.275059,2.221157e-16,1.958854e-16,0,0,0,0,0,0
1.734992,1.343795,-10.5048,1.891618e-12,0,0,1.891618e-12,4.440892e-16,-2.220446e-16,3.171814e-17,0,0,0,0,4.455961e-16,-2.235515e-16,3.345738e-16,47.719952,4.460984e-16,3.933586e-16,0,0,0,0,0,0
1.782282,1.343795,-10.549801,1.891618e-12,0,0,1.891618e-12,2.220446e-16,0,-9.34586e-18,0,0,0,0,2.224373e-16,-3.926729e-19,1.11415e-16,42.594093,1.485533e-16,1.484226e-16,0,0,0,0,0,0
1.829573,1.343795,-10.591655,1.891618e-12,0,0,1.891618e-12,4.440892e-16,0,3.191689e-17,0,0,0,0,4.463714e-16,-2.282153e-18,2.243267e-16,49.089859,2.991023e-16,2.983445e-16,0,0,0,0,0,0
1.876863,1.343795,-10.629231,1.891618e-12,0,0,1.891618e-12,-2.220446e-16,-1.110223e-16,-1.975499e-17,0,0,0,0,-1.076119e-16,-2.25455e-16,5.892154e-17,-35.20533,7.856205e-17,1.302112e-16,0,0,0,0,0,0
1.924154,1.343795,-10.661967,1.891618e-12,0,0,1.891618e-12,0,2.220446e-16,-7.613142e-18,0,0,0,0,2.223053e-16,-2.607222e-19,1.11283e-16,-43.038597,1.483774e-16,1.482905e-16,0,0,0,0,0,0
1.971444,1.343795,-10.690327,1.891618e-12,0,0,1.891618e-12,0,0,-5.777621e-17,0,0,0,0,5.777621e-17,-5.777621e-17,5.777621e-17,0,7.703495e-17,6.671422e-17,0,0,0,0,0,0
2.018735,1.343795,-10.715515,1.891618e-12,0,0,1.891618e-12,-2.220446e-16,0,-1.947817e-17,0,0,0,0,1.695711e-18,-2.237403e-16,1.12718e-16,-40.024544,1.502907e-16,1.497287e-16,0,0,0,0,0,0
2.066025,1.343795,-10.738897,1.891618e-12,0,0,1.891618e-12,-2.220446e-16,-1.110223e-16,1.115946e-17,0,0,0,0,-1.099117e-16,-2.231552e-16,5.662174e-17,-50.683357,7.549565e-17,1.288435e-16,0,0,0,0,0,0
2.113316,1.343795,-10.760045,1.891618e-12,0,0,1.891618e-12,-1.110223e-16,0,-3.043491e-17,0,0,0,0,7.795815e-18,-1.188181e-16,6.330696e-17,-30.632755,8.440929e-17,8.19344e-17,0,0,0,0,0,0
2.160606,1.343795,-10.778113,1.891618e-12,0,0,1.891618e-12,0,0,-2.379439e-17,0,0,0,0,2.379439e-17,-2.379439e-17,2.379439e-17,0,3.172585e-17,2.747539e-17,0,0,0,0,0,0
2.207896,1.343795,-10.792659,1.891618e-12,0,0,1.891618e-12,-1.110223e-16,0,6.202273e-17,0,0,0,0,2.77253e-17,-1.387476e-16,8.323645e-17,-69.085526,1.109819e-16,1.029917e-16,0,0,0,0,0,0
2.255187,1.343795,-10.804656,1.891618e-12,0,0,1.891618e-12,-1.110223e-16,2.220446e-16,1.488336e-17,0,0,0,0,2.227084e-16,-1.116861e-16,1.671972e-16,-47.553524,2.229296e-16,1.965776e-16,0,0,0,0,0,0
2.302477,1.343795,-10.812322,1.891618e-12,0,0,1.891618e-12,0,-1.110223e-16,-2.384937e-17,0,0,0,0,4.906398e-18,-1.159287e-16,6.041755e-17,33.375046,8.055673e-17,7.897208e-17,0,0,0,0,0,0
2.349768,1.343795,-10.815954,1.891618e-12,0,0,1.891618e-12,2.220446e-16,0,-1.714292e-17,0,0,0,0,2.233603e-16,-1.31572e-18,1.12338e-16,40.611149,1.49784e-16,1.493474e-16,0,0,0,0,0,0
2.397058,1.343795,-10.816603,1.891618e-12,0,0,1.891618e-12,2.220446e-16,-1.110223e-16,-4.056862e-17,0,0,0,0,2.269148e-16,-1.158925e-16,1.714036e-16,38.154522,2.285382e-16,2.0135e-16,0,0,0,0,0,0
2.444349,1.343795,-10.816609,1.891618e-12,0,0,1.891618e-12,-2.220446e-16,0,-4.580277e-18,0,0,0,0,9.444055e-20,-2.22139e-16,1.111167e-16,-43.818787,1.481557e-16,1.481242e-16,0,0,0,0,0,0
2.491639,1.343795,-10.817355,1.891618e-12,0,0,1.891618e-12,0,2.220446e-16,1.483466e-17,0,0,0,0,2.230313e-16,-9.867095e-19,1.12009e-16,-48.805355,1.493454e-16,1.490175e-16,0,0,0,0,0,0
2.53893,1.343795,-10.818495,1.891618e-12,0,0,1.891618e-12,-1.110223e-16,-1.110223e-16,-4.254648e-17,0,0,0,0,-6.847582e-17,-1.535688e-16,4.254648e-17,0,5.672865e-17,8.883584e-17,0,0,0,0,0,0
2.58622,1.343795,-10.81818,1.891618e-12,0,0,1.891618e-12,0,0,-5.629163e-18,0,0,0,0,5.629163e-18,-5.629163e-18,5.629163e-18,0,7.505551e-18,6.499998e-18,0,0,0,0,0,0
2.633511,1.343795,-10.814949,1.891618e-12,0,0,1.891618e-12,2.220446e-16,0,-9.978046e-18,0,0,0,0,2.224921e-16,-4.474829e-19,1.114698e-16,42.43219,1.486264e-16,1.484775e-16,0,0,0,0,0,0
2.680801,1.343795,-10.808219,1.891618e-12,0,0,1.891618e-12,-1.110223e-16,2.220446e-16,-6.827525e-18,0,0,0,0,2.221845e-16,-1.111622e-16,1.666733e-16,-43.826153,2.222311e-16,1.959836e-16,0,0,0,0,0,0
2.728091,1.343795,-10.798157,1.891618e-12,0,0,1.891618e-12,2.220446e-16,0,-1.793467e-17,0,0,0,0,2.234839e-16,-1.439265e-18,1.124616e-16,40.411823,1.499488e-16,1.494713e-16,0,0,0,0,0,0
2.775382,1.343795,-10.785165,1.891618e-12,0,0,1.891618e-12,2.220446e-16,-1.110223e-16,-5.628712e-17,0,0,0,0,2.312997e-16,-1.202774e-16,1.757886e-16,35.662556,2.343848e-16,2.063292e-16,0,0,0,0,0,0
2.822672,1.343795,-10.769577,1.891618e-12,0,0,1.891618e-12,2.220446e-16,-1.110223e-16,-6.454346e-18,0,0,0,0,2.221696e-16,-1.111473e-16,1.666585e-16,43.890247,2.222113e-16,1.959667e-16,0,0,0,0,0,0
2.869963,1.343795,-10.752499,1.891618e-12,0,0,1.891618e-12,0,-1.110223e-16,-1.097727e-17,0,0,0,0,1.074964e-18,-1.120973e-16,5.658612e-17,39.407066,7.544816e-17,7.50924e-17,0,0,0,0,0,0
2.917253,1.343795,-10.733414,1.891618e-12,0,0,1.891618e-12,2.220446e-16,2.220446e-16,-1.223476e-17,0,0,0,0,2.342794e-16,2.098098e-16,1.223476e-17,0,1.631302e-17,1.487024e-16,0,0,0,0,0,0
2.964544,1.343795,-10.7111,1.891618e-12,0,0,1.891618e-12,-1.110223e-16,2.220446e-16,-6.858471e-18,0,0,0,0,2.221858e-16,-1.111635e-16,1.666746e-16,-43.820839,2.222328e-16,1.95985e-16,0,0,0,0,0,0
3.011834,1.343795,-10.6847,1.891618e-12,0,0,1.891618e-12,-2.220446e-16,0,2.140346e-17,0,0,0,0,2.044314e-18,-2.240889e-16,1.130666e-16,-50.455956,1.507555e-16,1.500787e-16,0,0,0,0,0,0
3.059125,1.343795,-10.654729,1.891618e-12,0,0,1.891618e-12,-2.220446e-16,-1.110223e-16,3.565129e-18,0,0,0,0,-1.109079e-16,-2.22159e-16,5.562551e-17,-46.837349,7.416736e-17,1.282636e-16,0,0,0,0,0,0
3.106415,1.343795,-10.621526,1.891618e-12,0,0,1.891618e-12,0,2.220446e-16,1.277368e-17,0,0,0,0,2.22777e-16,-7.324222e-19,1.117547e-16,-48.281654,1.490063e-16,1.487628e-16,0,0,0,0,0,0
3.153705,1.343795,-10.585626,1.891618e-12,0,0,1.891618e-12,0,2.220446e-16,1.52667e-18,0,0,0,0,2.220551e-16,-1.049614e-20,1.110328e-16,-45.393913,1.480437e-16,1.480402e-16,0,0,0,0,0,0
3.200996,1.343795,-10.547313,1.891618e-12,0,0,1.891618e-12,2.220446e-16,-1.110223e-16,-7.13061e-18,0,0,0,0,2.221972e-16,-1.111749e-16,1.66686e-16,43.774105,2.222481e-16,1.95998e-16,0,0,0,0,0,0
3.248286,1.343795,-10.504055,1.891618e-12,0,0,1.891618e-12,2.220446e-16,2.220446e-16,-2.609723e-17,0,0,0,0,2.481418e-16,1.959474e-16,2.609723e-17,0,3.47963e-17,1.510659e-16,0,0,0,0,0,0
3.295577,1.343795,-10.45153,1.891618e-12,0,0,1.891618e-12,0,-1.110223e-16,-5.780407e-18,0,0,0,0,3.00147e-19,-1.113224e-16,5.58113e-17,42.027592,7.441507e-17,7.431522e-17,0,0,0,0,0,0
3.342867,1.343795,-10.401726,1.891618e-12,0,0,1.891618e-12,2.220446e-16,-1.110223e-16,-7.304772e-18,0,0,0,0,2.222047e-16,-1.111824e-16,1.666936e-16,43.744202,2.222581e-16,1.960065e-16,0,0,0,0,0,0
1.451249,1.296504,-10.051554,1.891618e-12,0,0,1.891618e-12,0,0,2.876485e-17,0,0,0,0,2.876485e-17,-2.876485e-17,2.876485e-17,90,3.835313e-17,3.321478e-17,0,0,0,0,0,0
1.49854,1.296504,-10.145274,1.891618e-12,0,0,1.891618e-12,2.220446e-16,0,-3.796333e-17,0,0,0,0,2.283559e-16,-6.311266e-18,1.173336e-16,35.561111,1.564448e-16,1.54384e-16,0,0,0,0,0,0
1.54583,1.296504,-10.257615,1.891618e-12,0,0,1.891618e-12,2.220446e-16,-2.220446e-16,6.865568e-17,0,0,0,0,2.324164e-16,-2.324164e-16,2.324164e-16,53.590744,3.098886e-16,2.683714e-16,0,0,0,0,0,0
1.593121,1.296504,-10.340975,1.891618e-12,0,0,1.891618e-12,6.661338e-16,0,1.106778e-17,0,0,0,0,6.663177e-16,-1.838399e-19,3.332507e-16,45.951618,4.443343e-16,4.442731e-16,0,0,0,0,0,0
1.640411,1.296504,-10.40561,1.891618e-12,0,0,1.891618e-12,0,2.220446e-16,2.095366e-17,0,0,0,0,2.240046e-16,-1.96003e-18,1.129823e-16,-50.343964,1.506431e-16,1.49994e-16,0,0,0,0,0,0
1.687701,1.296504,-10.458692,1.891618e-12,0,0,1.891618e-12,2.220446e-16,2.220446e-16,-2.833855e-17,0,0,0,0,2.503832e-16,1.937061e-16,2.833855e-17,0,3.778473e-17,1.516033e-16,0,0,0,0,0,0
1.734992,1.296504,-10.50563,1.891618e-12,0,0,1.891618e-12,-2.220446e-16,-2.220446e-16,4.351452e-17,0,0,0,0,-1.785301e-16,-2.655591e-16,4.351452e-17,90,5.801935e-17,1.563249e-16,0,0,0,0,0,0
1.782282,1.296504,-10.549735,1.891618e-12,0,0,1.891618e-12,2.220446e-16,2.220446e-16,-1.395204e-17,0,0,0,0,2.359966e-16,2.080926e-16,1.395204e-17,0,1.860272e-17,1.489038e-16,0,0,0,0,0,0
1.829573,1.296504,-10.591164,1.891618e-12,0,0,1.891618e-12,0,2.220446e-16,1.798888e-17,0,0,0,0,2.234925e-16,-1.447922e-18,1.124702e-16,-49.601807,1.499603e-16,1.4948e-16,0,0,0,0,0,0
1.876863,1.296504,-10.628685,1.891618e-12,0,0,1.891618e-12,0,-2.220446e-16,-3.143218e-18,0,0,0,0,4.448585e-20,-2.220891e-16,1.110668e-16,44.189148,1.48089e-16,1.480742e-16,0,0,0,0,0,0
1.924154,1.296504,-10.661675,1.891618e-12,0,0,1.891618e-12,2.220446e-16,2.220446e-16,-2.584198e-17,0,0,0,0,2.478866e-16,1.962026e-16,2.584198e-17,0,3.445597e-17,1.510073e-16,0,0,0,0,0,0
1.971444,1.296504,-10.690143,1.891618e-12,0,0,1.891618e-12,-1.110223e-16,-1.110223e-16,-8.200096e-18,0,0,0,0,-1.028222e-16,-1.192224e-16,8.200096e-18,0,1.093346e-17,7.461807e-17,0,0,0,0,0,0
2.018735,1.296504,-10.715042,1.891618e-12,0,0,1.891618e-12,-1.110223e-16,0,5.036015e-18,0,0,0,0,2.279675e-19,-1.112503e-16,5.573912e-17,-47.591866,7.431882e-17,7.424295e-17,0,0,0,0,0,0
2.066025,1.296504,-10.737721,1.891618e-12,0,0,1.891618e-12,-1.110223e-16,0,9.272588e-18,0,0,0,0,7.691188e-19,-1.117914e-16,5.628027e-17,-49.74157,7.504036e-17,7.478531e-17,0,0,0,0,0,0
2.113316,1.296504,-10.757779,1.891618e-12,0,0,1.891618e-12,0,-1.110223e-16,-1.981923e-17,0,0,0,0,3.431955e-18,-1.144543e-16,5.89431e-17,35.175919,7.859081e-17,7.747217e-17,0,0,0,0,0,0
2.160606,1.296504,-10.775212,1.891618e-12,0,0,1.891618e-12,2.220446e-16,2.220446e-16,9.798418e-18,0,0,0,0,2.31843e-16,2.122462e-16,9.798418e-18,90,1.306456e-17,1.484615e-16,0,0,0,0,0,0
2.207896,1.296504,-10.789794,1.891618e-12,0,0,1.891618e-12,2.220446e-16,-2.220446e-16,6.248707e-17,0,0,0,0,2.306695e-16,-2.306695e-16,2.306695e-16,52.858746,3.075594e-16,2.663542e-16,0,0,0,0,0,0
2.255187,1.296504,-10.802401,1.891618e-12,0,0,1.891618e-12,2.220446e-16,2.220446e-16,3.315175e-17,0,0,0,0,2.551964e-16,1.888928e-16,3.315175e-17,90,4.420234e-17,1.528993e-16,0,0,0,0,0,0
2.302477,1.296504,-10.810583,1.891618e-12,0,0,1.891618e-12,4.440892e-16,2.220446e-16,-6.185267e-18,0,0,0,0,4.442614e-16,2.218724e-16,1.111945e-16,43.405621,1.482593e-16,2.564945e-16,0,0,0,0,0,0
2.349768,1.296504,-10.814486,1.891618e-12,0,0,1.891618e-12,-1.110223e-16,0,-1.098971e-17,0,0,0,0,1.077378e-18,-1.120997e-16,5.658853e-17,-39.40089,7.545137e-17,7.509482e-17,0,0,0,0,0,0
2.397058,1.296504,-10.814957,1.891618e-12,0,0,1.891618e-12,-1.110223e-16,0,2.574264e-18,0,0,0,0,5.965716e-20,-1.11082e-16,5.557081e-17,-46.32756,7.409441e-17,7.407453e-17,0,0,0,0,0,0
2.444349,1.296504,-10.815074,1.891618e-12,0,0,1.891618e-12,0,-1.110223e-16,-1.855001e-17,0,0,0,0,3.017397e-18,-1.140397e-16,5.852855e-17,35.761028,7.803807e-17,7.705196e-17,0,0,0,0,0,0
2.491639,1.296504,-10.816528,1.891618e-12,0,0,1.891618e-12,2.220446e-16,0,-1.647209e-17,0,0,0,0,2.232599e-16,-1.215309e-18,1.122376e-16,40.780369,1.496502e-16,1.492467e-16,0,0,0,0,0,0
2.53893,1.296504,-10.819045,1.891618e-12,0,0,1.891618e-12,2.220446e-16,0,-7.246335e-18,0,0,0,0,2.222808e-16,-2.362299e-19,1.112585e-16,43.132824,1.483447e-16,1.48266e-16,0,0,0,0,0,0
2.58622,1.296504,-10.820287,1.891618e-12,0,0,1.891618e-12,0,0,-2.895196e-18,0,0,0,0,2.895196e-18,-2.895196e-18,2.895196e-18,0,3.860262e-18,3.343085e-18,0,0,0,0,0,0
2.633511,1.296504,-10.818356,1.891618e-12,0,0,1.891618e-12,-1.110223e-16,2.220446e-16,9.287737e-18,0,0,0,0,2.223034e-16,-1.112811e-16,1.667922e-16,-46.596069,2.223897e-16,1.961184e-16,0,0,0,0,0,0
2.680801,1.296504,-10.812137,1.891618e-12,0,0,1.891618e-12,0,2.220446e-16,1.337879e-17,0,0,0,0,2.228478e-16,-8.032029e-19,1.118255e-16,-48.435661,1.491007e-16,1.488337e-16,0,0,0,0,0,0
2.728091,1.296504,-10.802013,1.891618e-12,0,0,1.891618e-12,-3.330669e-16,0,4.01963e-18,0,0,0,0,4.850399e-20,-3.331154e-16,1.66582e-16,-45.691341,2.221093e-16,2.220931e-16,0,0,0,0,0,0
2.775382,1.296504,-10.788562,1.891618e-12,0,0,1.891618e-12,0,-1.110223e-16,-9.213347e-18,0,0,0,0,7.593887e-19,-1.117817e-16,5.627054e-17,40.288177,7.502739e-17,7.477554e-17,0,0,0,0,0,0
2.822672,1.296504,-10.772555,1.891618e-12,0,0,1.891618e-12,-1.110223e-16,-2.220446e-16,-2.111535e-17,0,0,0,0,-1.07142e-16,-2.259249e-16,5.939146e-17,34.587082,7.918862e-17,1.304955e-16,0,0,0,0,0,0
2.869963,1.296504,-10.755337,1.891618e-12,0,0,1.891618e-12,0,2.220446e-16,-4.325463e-17,0,0,0,0,2.301731e-16,-8.128504e-18,1.191508e-16,-34.356979,1.588677e-16,1.562287e-16,0,0,0,0,0,0
2.917253,1.296504,-10.736534,1.891618e-12,0,0,1.891618e-12,2.220446e-16,-2.220446e-16,5.157296e-18,0,0,0,0,2.221045e-16,-2.221045e-16,2.221045e-16,45.665268,2.961393e-16,2.564642e-16,0,0,0,0,0,0
2.964544,1.296504,-10.714416,1.891618e-12,0,0,1.891618e-12,0,-1.110223e-16,-2.152116e-17,0,0,0,0,4.025796e-18,-1.150481e-16,5.953695e-17,34.404575,7.93826e-17,7.807527e-17,0,0,0,0,0,0
3.011834,1.296504,-10.688052,1.891618e-12,0,0,1.891618e-12,0,0,-1.697926e-17,0,0,0,0,1.697926e-17,-1.697926e-17,1.697926e-17,0,2.263902e-17,1.960597e-17,0,0,0,0,0,0
3.059125,1.296504,-10.657994,1.891618e-12,0,0,1.891618e-12,4.440892e-16,0,5.279236e-18,0,0,0,0,4.441519e-16,-6.274954e-20,2.221074e-16,45.680992,2.961431e-16,2.961222e-16,0,0,0,0,0,0
3.106415,1.296504,-10.624801,1.891618e-12,0,0,1.891618e-12,2.220446e-16,-1.110223e-16,-1.626474e-17,0,0,0,0,2.22837e-16,-1.118147e-16,1.673258e-16,42.210907,2.231011e-16,1.967235e-16,0,0,0,0,0,0
3.153705,1.296504,-10.588965,1.891618e-12,0,0,1.891618e-12,0,2.220446e-16,-2.658851e-17,0,0,0,0,2.25184e-16,-3.139427e-18,1.141617e-16,-38.266003,1.522156e-16,1.5118e-16,0,0,0,0,0,0
3.200996,1.296504,-10.550408,1.891618e-12,0,0,1.891618e-12,0,2.220446e-16,3.23151e-18,0,0,0,0,2.220916e-16,-4.701959e-20,1.110693e-16,-45.833614,1.480924e-16,1.480768e-16,0,0,0,0,0,0
3.248286,1.296504,-10.505853,1.891618e-12,0,0,1.891618e-12,-2.220446e-16,0,-2.371483e-17,0,0,0,0,2.504545e-18,-2.245491e-16,1.135268e-16,-38.971291,1.513691e-16,1.505412e-16,0,0,0,0,0,0
3.295577,1.296504,-10.451506,1.891618e-12,0,0,1.891618e-12,0,2.220446e-16,2.339637e-18,0,0,0,0,2.220692e-16,-2.464952e-20,1.110469e-16,-45.603622,1.480626e-16,1.480544e-16,0,0,0,0,0,0
3.342867,1.296504,-10.39819,1.891618e-12,0,0,1.891618e-12,0,0,-3.663356e-17,0,0,0,0,3.663356e-17,-3.663356e-17,3.663356e-17,0,4.884475e-17,4.230079e-17,0,0,0,0,0,0
1.451249,1.249214,-10.060051,1.891618e-12,0,0,1.891618e-12,-1.110223e-16,-3.330669e-16,-3.07957e-17,0,0,0,0,-1.068303e-16,-3.372589e-16,1.152143e-16,37.248447,1.53619e-16,1.990274e-16,0,0,0,0,0,0
1.49854,1.249214,-10.153989,1.891618e-12,0,0,1.891618e-12,-2.220446e-16,2.220446e-16,-5.02664e-17,0,0,0,0,2.276632e-16,-2.276632e-16,2.276632e-16,-38.622196,3.035509e-16,2.628828e-16,0,0,0,0,0,0
1.54583,1.249214,-10.264948,1.891618e-12,0,0,1.891618e-12,2.220446e-16,-2.220446e-16,-1.723434e-17,0,0,0,0,2.227124e-16,-2.227124e-16,2.227124e-16,42.780899,2.969499e-16,2.571662e-16,0,0,0,0,0,0
1.593121,1.249214,-10.347473,1.891618e-12,0,0,1.891618e-12,2.220446e-16,0,2.198368e-17,0,0,0,0,2.242002e-16,-2.155584e-18,1.131779e-16,50.600166,1.509038e-16,1.501905e-16,0,0,0,0,0,0
1.640411,1.249214,-10.410902,1.891618e-12,0,0,1.891618e-12,-2.220446e-16,-1.110223e-16,-1.289802e-17,0,0,0,0,-1.095436e-16,-2.235233e-16,5.698989e-17,-38.459709,7.598651e-17,1.290597e-16,0,0,0,0,0,0
1.687701,1.249214,-10.462569,1.891618e-12,0,0,1.891618e-12,2.220446e-16,0,2.531822e-17,0,0,0,0,2.248949e-16,-2.850275e-18,1.138726e-16,51.423203,1.518301e-16,1.50889e-16,0,0,0,0,0,0
1.734992,1.249214,-10.508297,1.891618e-12,0,0,1.891618e-12,-3.330669e-16,2.220446e-16,1.268954e-17,0,0,0,0,2.223345e-16,-3.333568e-16,2.778457e-16,-46.308838,3.704609e-16,3.229559e-16,0,0,0,0,0,0
1.782282,1.249214,-10.551586,1.891618e-12,0,0,1.891618e-12,2.220446e-16,-4.440892e-16,-2.333366e-17,0,0,0,0,2.22861e-16,-4.449055e-16,3.338833e-16,42.996288,4.451776e-16,3.925756e-16,0,0,0,0,0,0
1.829573,1.249214,-10.592668,1.891618e-12,0,0,1.891618e-12,-2.220446e-16,0,-1.63671e-17,0,0,0,0,1.199949e-18,-2.232446e-16,1.122223e-16,-40.806881,1.496297e-16,1.492313e-16,0,0,0,0,0,0
1.876863,1.249214,-10.630137,1.891618e-12,0,0,1.891618e-12,2.220446e-16,2.220446e-16,2.734023e-18,0,0,0,0,2.247786e-16,2.193106e-16,2.734023e-18,90,3.645364e-18,1.480634e-16,0,0,0,0,0,0
1.924154,1.249214,-10.663351,1.891618e-12,0,0,1.891618e-12,2.220446e-16,0,-3.259217e-17,0,0,0,0,2.267297e-16,-4.685091e-18,1.157074e-16,36.819828,1.542765e-16,1.527388e-16,0,0,0,0,0,0
1.971444,1.249214,-10.691745,1.891618e-12,0,0,1.891618e-12,-1.110223e-16,2.220446e-16,-1.955152e-17,0,0,0,0,2.231884e-16,-1.121661e-16,1.676772e-16,-41.651978,2.235696e-16,1.97122e-16,0,0,0,0,0,0
2.018735,1.249214,-10.715954,1.891618e-12,0,0,1.891618e-12,-1.110223e-16,2.220446e-16,-4.682388e-18,0,0,0,0,2.221104e-16,-1.110881e-16,1.665993e-16,-44.194725,2.221324e-16,1.958996e-16,0,0,0,0,0,0
2.066025,1.249214,-10.737649,1.891618e-12,0,0,1.891618e-12,0,-2.220446e-16,4.121673e-18,0,0,0,0,7.648166e-20,-2.221211e-16,1.110988e-16,46.063057,1.481317e-16,1.481062e-16,0,0,0,0,0,0
2.113316,1.249214,-10.756507,1.891618e-12,0,0,1.891618e-12,-1.110223e-16,0,-2.400849e-17,0,0,0,0,4.969386e-18,-1.159917e-16,6.048053e-17,-33.305794,8.064072e-17,7.903635e-17,0,0,0,0,0,0
2.160606,1.249214,-10.77326,1.891618e-12,0,0,1.891618e-12,-1.110223e-16,2.220446e-16,-2.183346e-17,0,0,0,0,2.234697e-16,-1.124474e-16,1.679586e-16,-41.265404,2.239448e-16,1.974411e-16,0,0,0,0,0,0
2.207896,1.249214,-10.788284,1.891618e-12,0,0,1.891618e-12,2.220446e-16,4.440892e-16,-4.904105e-18,0,0,0,0,4.441975e-16,2.219363e-16,1.111306e-16,-43.735382,1.481741e-16,2.564575e-16,0,0,0,0,0,0
2.255187,1.249214,-10.800944,1.891618e-12,0,0,1.891618e-12,-2.220446e-16,2.220446e-16,2.336055e-18,0,0,0,0,2.220569e-16,-2.220569e-16,2.220569e-16,-45.301384,2.960759e-16,2.564092e-16,0,0,0,0,0,0
2.302477,1.249214,-10.809458,1.891618e-12,0,0,1.891618e-12,-1.110223e-16,2.220446e-16,-2.592071e-17,0,0,0,0,2.240498e-16,-1.130275e-16,1.685386e-16,-40.576488,2.247182e-16,1.980991e-16,0,0,0,0,0,0
2.349768,1.249214,-10.813961,1.891618e-12,0,0,1.891618e-12,-1.110223e-16,-2.220446e-16,-2.142718e-17,0,0,0,0,-1.070304e-16,-2.260365e-16,5.950304e-17,34.446762,7.933739e-17,1.305633e-16,0,0,0,0,0,0
2.397058,1.249214,-10.814826,1.891618e-12,0,0,1.891618e-12,2.220446e-16,0,-1.321273e-17,0,0,0,0,2.228281e-16,-7.834567e-19,1.118058e-16,41.606586,1.490743e-16,1.488139e-16,0,0,0,0,0,0
2.444349,1.249214,-10.815502,1.891618e-12,0,0,1.891618e-12,2.220446e-16,-2.220446e-16,-5.279291e-17,0,0,0,0,2.282343e-16,-2.282343e-16,2.282343e-16,38.312889,3.043124e-16,2.635423e-16,0,0,0,0,0,0
2.491639,1.249214,-10.817649,1.891618e-12,0,0,1.891618e-12,-2.220446e-16,0,1.090297e-17,0,0,0,0,5.340793e-19,-2.225787e-16,1.115564e-16,-47.804379,1.487418e-16,1.485641e-16,0,0,0,0,0,0
2.53893,1.249214,-10.820923,1.891618e-12,0,0,1.891618e-12,2.220446e-16,0,-1.201991e-17,0,0,0,0,2.226934e-16,-6.487761e-19,1.116711e-16,41.91045,1.488948e-16,1.48679e-16,0,0,0,0,0,0
2.58622,1.249214,-10.823148,1.891618e-12,0,0,1.891618e-12,-1.110223e-16,0,-1.203e-17,0,0,0,0,1.288574e-18,-1.123109e-16,5.679973e-17,-38.886166,7.573296e-17,7.530712e-17,0,0,0,0,0,0
2.633511,1.249214,-10.822186,1.891618e-12,0,0,1.891618e-12,0,0,-9.601971e-18,0,0,0,0,9.601971e-18,-9.601971e-18,9.601971e-18,0,1.280263e-17,1.10874e-17,0,0,0,0,0,0
2.680801,1.249214,-10.816068,1.891618e-12,0,0,1.891618e-12,0,0,-2.987758e-17,0,0,0,0,2.987758e-17,-2.987758e-17,2.987758e-17,0,3.983678e-17,3.449966e-17,0,0,0,0,0,0
2.728091,1.249214,-10.805439,1.891618e-12,0,0,1.891618e-12,2.220446e-16,-2.220446e-16,-3.604884e-17,0,0,0,0,2.249518e-16,-2.249518e-16,2.249518e-16,40.389256,2.999358e-16,2.59752e-16,0,0,0,0,0,0
2.775382,1.249214,-10.791223,1.891618e-12,0,0,1.891618e-12,-1.110223e-16,0,-3.409712e-17,0,0,0,0,9.635619e-18,-1.206579e-16,6.514677e-17,-29.220062,8.686236e-17,8.383527e-17,0,0,0,0,0,0
2.822672,1.249214,-10.774736,1.891618e-12,0,0,1.891618e-12,-2.220446e-16,-4.440892e-16,-2.480456e-17,0,0,0,0,-2.193074e-16,-4.468264e-16,1.137595e-16,38.702915,1.516793e-16,2.579899e-16,0,0,0,0,0,0
2.869963,1.249214,-10.757448,1.891618e-12,0,0,1.891618e-12,2.220446e-16,0,-1.978354e-17,0,0,0,0,2.237935e-16,-1.748882e-18,1.127712e-16,39.948135,1.503616e-16,1.49782e-16,0,0,0,0,0,0
2.917253,1.249214,-10.73867,1.891618e-12,0,0,1.891618e-12,2.220446e-16,0,7.230436e-18,0,0,0,0,2.222798e-16,-2.351955e-19,1.112575e-16,46.863091,1.483433e-16,1.48265e-16,0,0,0,0,0,0
2.964544,1.249214,-10.716365,1.891618e-12,0,0,1.891618e-12,0,-1.110223e-16,5.781787e-18,0,0,0,0,3.0029e-19,-1.113226e-16,5.581144e-17,47.973114,7.441525e-17,7.431536e-17,0,0,0,0,0,0
3.011834,1.249214,-10.689792,1.891618e-12,0,0,1.891618e-12,-1.110223e-16,2.220446e-16,-1.226186e-17,0,0,0,0,2.224954e-16,-1.114731e-16,1.669843e-16,-42.894455,2.226457e-16,1.963361e-16,0,0,0,0,0,0
3.059125,1.249214,-10.65963,1.891618e-12,0,0,1.891618e-12,0,-1.110223e-16,3.732991e-17,0,0,0,0,1.138437e-17,-1.224067e-16,6.689552e-17,61.959942,8.919402e-17,8.56518e-17,0,0,0,0,0,0
3.106415,1.249214,-10.626626,1.891618e-12,0,0,1.891618e-12,0,-1.110223e-16,-5.674492e-17,0,0,0,0,2.387067e-17,-1.34893e-16,7.938182e-17,22.185154,1.058424e-16,9.885098e-17,0,0,0,0,0,0
3.153705,1.249214,-10.590992,1.891618e-12,0,0,1.891618e-12,-2.220446e-16,2.220446e-16,-1.193485e-17,0,0,0,0,2.223651e-16,-2.223651e-16,2.223651e-16,-43.461662,2.964868e-16,2.567651e-16,0,0,0,0,0,0
3.200996,1.249214,-10.552312,1.891618e-12,0,0,1.891618e-12,0,-1.110223e-16,3.316864e-17,0,0,0,0,9.154503e-18,-1.201768e-16,6.466565e-17,60.429436,8.622087e-17,8.333714e-17,0,0,0,0,0,0
3.248286,1.249214,-10.507151,1.891618e-12,0,0,1.891618e-12,2.220446e-16,-2.220446e-16,-6.119437e-18,0,0,0,0,2.221289e-16,-2.221289e-16,2.221289e-16,44.210678,2.961719e-16,2.564924e-16,0,0,0,0,0,0
3.295577,1.249214,-10.451722,1.891618e-12,0,0,1.891618e-12,0,2.220446e-16,4.055722e-17,0,0,0,0,2.292206e-16,-7.176005e-18,1.181983e-16,-55.033802,1.575977e-16,1.55261e-16,0,0,0,0,0,0
3.342867,1.249214,-10.385585,1.891618e-12,0,0,1.891618e-12,2.220446e-16,2.220446e-16,5.512486e-17,0,0,0,0,2.771695e-16,1.669197e-16,5.512486e-17,90,7.349981e-17,1.611349e-16,0,0,0,0,0,0
3.390158,1.249214,-10.327163,1.891618e-12,0,0,1.891618e-12,4.440892e-16,2.220446e-16,2.846379e-17,0,0,0,0,4.476799e-16,2.184539e-16,1.14613e-16,52.189857,1.528173e-16,2.58493e-16,0,0,0,0,0,0
1.451249,1.201924,-10.072114,1.891618e-12,0,0,1.891618e-12,0,-3.330669e-16,2.221158e-17,0,0,0,0,1.474718e-18,-3.345416e-16,1.680082e-16,48.798527,2.240109e-16,2.23521e-16,0,0,0,0,0,0
1.49854,1.201924,-10.164793,1.891618e-12,0,0,1.891618e-12,2.220446e-16,2.220446e-16,-4.470182e-18,0,0,0,0,2.265148e-16,2.175744e-16,4.470182e-18,0,5.960242e-18,1.481197e-16,0,0,0,0,0,0
1.54583,1.201924,-10.273005,1.891618e-12,0,0,1.891618e-12,-1.110223e-16,2.220446e-16,1.790039e-17,0,0,0,0,2.230039e-16,-1.119816e-16,1.674927e-16,-48.067535,2.233237e-16,1.969128e-16,0,0,0,0,0,0
1.593121,1.201924,-10.354203,1.891618e-12,0,0,1.891618e-12,2.220446e-16,0,-2.677658e-17,0,0,0,0,2.25228e-16,-3.183377e-18,1.142057e-16,38.220123,1.522742e-16,1.512243e-16,0,0,0,0,0,0
1.640411,1.201924,-10.416397,1.891618e-12,0,0,1.891618e-12,-2.220446e-16,2.220446e-16,-1.413185e-18,0,0,0,0,2.220491e-16,-2.220491e-16,2.220491e-16,-44.817677,2.960655e-16,2.564002e-16,0,0,0,0,0,0
1.687701,1.201924,-10.467233,1.891618e-12,0,0,1.891618e-12,2.220446e-16,0,-2.469385e-17,0,0,0,0,2.247577e-16,-2.713084e-18,1.137354e-16,38.730129,1.516472e-16,1.50751e-16,0,0,0,0,0,0
1.734992,1.201924,-10.512297,1.891618e-12,0,0,1.891618e-12,2.220446e-16,-1.110223e-16,-2.567831e-17,0,0,0,0,2.240127e-16,-1.129904e-16,1.685015e-16,40.61721,2.246687e-16,1.98057e-16,0,0,0,0,0,0
1.782282,1.201924,-10.555323,1.891618e-12,0,0,1.891618e-12,0,-2.220446e-16,2.597565e-17,0,0,0,0,2.998248e-18,-2.250429e-16,1.140205e-16,51.584248,1.520274e-16,1.510379e-16,0,0,0,0,0,0
1.829573,1.201924,-10.59645,1.891618e-12,0,0,1.891618e-12,0,-1.110223e-16,1.185898e-17,0,0,0,0,1.2526e-18,-1.122749e-16,5.676375e-17,51.029484,7.5685e-17,7.527094e-17,0,0,0,0,0,0
1.876863,1.201924,-10.634187,1.891618e-12,0,0,1.891618e-12,0,-2.220446e-16,3.489354e-17,0,0,0,0,5.354288e-18,-2.273989e-16,1.163766e-16,53.723785,1.551688e-16,1.534152e-16,0,0,0,0,0,0
1.924154,1.201924,-10.667429,1.891618e-12,0,0,1.891618e-12,-2.220446e-16,2.220446e-16,-5.49918e-17,0,0,0,0,2.287529e-16,-2.287529e-16,2.287529e-16,-38.044975,3.050039e-16,2.641411e-16,0,0,0,0,0,0
1.971444,1.201924,-10.695663,1.891618e-12,0,0,1.891618e-12,-1.110223e-16,0,-8.865655e-18,0,0,0,0,7.035065e-19,-1.117258e-16,5.621466e-17,-40.462978,7.495288e-17,7.471948e-17,0,0,0,0,0,0
2.018735,1.201924,-10.719474,1.891618e-12,0,0,1.891618e-12,-1.110223e-16,2.220446e-16,1.322057e-17,0,0,0,0,2.225685e-16,-1.115462e-16,1.670574e-16,-47.269505,2.227432e-16,1.964191e-16,0,0,0,0,0,0
2.066025,1.201924,-10.740421,1.891618e-12,0,0,1.891618e-12,0,2.220446e-16,-2.094173e-17,0,0,0,0,2.240024e-16,-1.957819e-18,1.129801e-16,-39.659008,1.506402e-16,1.499918e-16,0,0,0,0,0,0
2.113316,1.201924,-10.758466,1.891618e-12,0,0,1.891618e-12,0,-2.220446e-16,3.500651e-17,0,0,0,0,5.388209e-18,-2.274328e-16,1.164105e-16,53.750309,1.55214e-16,1.534495e-16,0,0,0,0,0,0
2.160606,1.201924,-10.774251,1.891618e-12,0,0,1.891618e-12,-1.110223e-16,2.220446e-16,2.485668e-17,0,0,0,0,2.238894e-16,-1.128671e-16,1.683783e-16,-49.244633,2.245044e-16,1.979172e-16,0,0,0,0,0,0
2.207896,1.201924,-10.788596,1.891618e-12,0,0,1.891618e-12,-2.220446e-16,2.220446e-16,-2.799222e-17,0,0,0,0,2.238021e-16,-2.238021e-16,2.238021e-16,-41.407433,2.984028e-16,2.584244e-16,0,0,0,0,0,0
2.255187,1.201924,-10.801131,1.891618e-12,0,0,1.891618e-12,-3.330669e-16,-1.110223e-16,-1.213086e-17,0,0,0,0,-1.103615e-16,-3.337277e-16,1.116831e-16,-41.882156,1.489108e-16,1.963253e-16,0,0,0,0,0,0
2.302477,1.201924,-10.809738,1.891618e-12,0,0,1.891618e-12,2.220446e-16,-1.110223e-16,-4.127919e-17,0,0,0,0,2.270843e-16,-1.16062e-16,1.715732e-16,38.039249,2.287643e-16,2.015425e-16,0,0,0,0,0,0
2.349768,1.201924,-10.814639,1.891618e-12,0,0,1.891618e-12,-2.220446e-16,0,-9.486385e-18,0,0,0,0,4.045487e-19,-2.224491e-16,1.114269e-16,-42.55809,1.485691e-16,1.484345e-16,0,0,0,0,0,0
2.397058,1.201924,-10.816242,1.891618e-12,0,0,1.891618e-12,2.220446e-16,-1.110223e-16,8.146718e-18,0,0,0,0,2.222438e-16,-1.112214e-16,1.667326e-16,46.400322,2.223101e-16,1.960508e-16,0,0,0,0,0,0
2.444349,1.201924,-10.817543,1.891618e-12,0,0,1.891618e-12,-2.220446e-16,2.220446e-16,-7.65829e-18,0,0,0,0,2.221766e-16,-2.221766e-16,2.221766e-16,-44.012329,2.962355e-16,2.565475e-16,0,0,0,0,0,0
2.491639,1.201924,-10.820246,1.891618e-12,0,0,1.891618e-12,2.220446e-16,0,4.312001e-17,0,0,0,0,2.301243e-16,-8.079698e-18,1.19102e-16,55.612846,1.588027e-16,1.561791e-16,0,0,0,0,0,0
2.53893,1.201924,-10.824019,1.891618e-12,0,0,1.891618e-12,2.220446e-16,4.440892e-16,-7.374077e-18,0,0,0,0,4.443338e-16,2.218e-16,1.112669e-16,-43.100006,1.483559e-16,2.565364e-16,0,0,0,0,0,0
2.58622,1.201924,-10.826595,1.891618e-12,0,0,1.891618e-12,2.220446e-16,-2.220446e-16,5.547067e-17,0,0,0,0,2.288685e-16,-2.288685e-16,2.288685e-16,52.013206,3.05158e-16,2.642746e-16,0,0,0,0,0,0
2.633511,1.201924,-10.8257,1.891618e-12,0,0,1.891618e-12,-2.220446e-16,2.220446e-16,3.253503e-19,0,0,0,0,2.220448e-16,-2.220448e-16,2.220448e-16,-45.041977,2.960598e-16,2.563953e-16,0,0,0,0,0,0
2.680801,1.201924,-10.81908,1.891618e-12,0,0,1.891618e-12,0,-1.110223e-16,6.210319e-17,0,0,0,0,2.778527e-17,-1.388076e-16,8.329643e-17,69.103973,1.110619e-16,1.030563e-16,0,0,0,0,0,0
2.728091,1.201924,-10.807428,1.891618e-12,0,0,1.891618e-12,-1.110223e-16,0,3.531228e-17,0,0,0,0,1.027977e-17,-1.213021e-16,6.579092e-17,-61.230824,8.772123e-17,8.450332e-17,0,0,0,0,0,0
2.775382,1.201924,-10.792287,1.891618e-12,0,0,1.891618e-12,2.220446e-16,0,-1.087704e-17,0,0,0,0,2.225761e-16,-5.31548e-19,1.115539e-16,42.202248,1.487385e-16,1.485616e-16,0,0,0,0,0,0
2.822672,1.201924,-10.775573,1.891618e-12,0,0,1.891618e-12,-1.110223e-16,2.220446e-16,-2.082172e-17,0,0,0,0,2.233412e-16,-1.123189e-16,1.678301e-16,-41.436638,2.237734e-16,1.972954e-16,0,0,0,0,0,0
2.869963,1.201924,-10.758257,1.891618e-12,0,0,1.891618e-12,2.220446e-16,-2.220446e-16,4.051925e-17,0,0,0,0,2.257114e-16,-2.257114e-16,2.257114e-16,50.170841,3.009485e-16,2.60629e-16,0,0,0,0,0,0
2.917253,1.201924,-10.739287,1.891618e-12,0,0,1.891618e-12,2.220446e-16,-2.220446e-16,2.240274e-17,0,0,0,0,2.231719e-16,-2.231719e-16,2.231719e-16,47.880623,2.975625e-16,2.576967e-16,0,0,0,0,0,0
2.964544,1.201924,-10.716455,1.891618e-12,0,0,1.891618e-12,0,-2.220446e-16,-1.079917e-17,0,0,0,0,5.239824e-19,-2.225686e-16,1.115463e-16,42.222153,1.487284e-16,1.48554e-16,0,0,0,0,0,0
3.011834,1.201924,-10.689363,1.891618e-12,0,0,1.891618e-12,2.220446e-16,-1.110223e-16,-4.744525e-17,0,0,0,0,2.286713e-16,-1.17649e-16,1.731602e-16,37.048893,2.308802e-16,2.033441e-16,0,0,0,0,0,0
3.059125,1.201924,-10.65898,1.891618e-12,0,0,1.891618e-12,-2.220446e-16,-4.440892e-16,-2.902747e-18,0,0,0,0,-2.220067e-16,-4.441272e-16,1.110602e-16,44.251152,1.480803e-16,2.564169e-16,0,0,0,0,0,0
3.106415,1.201924,-10.626208,1.891618e-12,0,0,1.891618e-12,0,2.220446e-16,7.545292e-18,0,0,0,0,2.223007e-16,-2.56101e-19,1.112784e-16,-46.943977,1.483712e-16,1.482859e-16,0,0,0,0,0,0
3.153705,1.201924,-10.591159,1.891618e-12,0,0,1.891618e-12,-2.220446e-16,2.220446e-16,-1.311311e-17,0,0,0,0,2.224315e-16,-2.224315e-16,2.224315e-16,-43.310127,2.965753e-16,2.568418e-16,0,0,0,0,0,0
3.200996,1.201924,-10.552864,1.891618e-12,0,0,1.891618e-12,0,-2.220446e-16,-2.853215e-17,0,0,0,0,3.607689e-18,-2.256523e-16,1.1463e-16,37.793594,1.5284e-16,1.516517e-16,0,0,0,0,0,0
3.248286,1.201924,-10.507602,1.891618e-12,0,0,1.891618e-12,2.220446e-16,0,2.480823e-18,0,0,0,0,2.220723e-16,-2.771387e-20,1.1105e-16,45.640038,1.480667e-16,1.480575e-16,0,0,0,0,0,0
3.295577,1.201924,-10.451324,1.891618e-12,0,0,1.891618e-12,-1.110223e-16,0,7.699699e-17,0,0,0,0,3.941e-17,-1.504323e-16,9.492115e-17,-72.105103,1.265615e-16,1.156846e-16,0,0,0,0,0,0
3.342867,1.201924,-10.3813,1.891618e-12,0,0,1.891618e-12,2.220446e-16,-1.110223e-16,9.171106e-18,0,0,0,0,2.222969e-16,-1.112746e-16,1.667858e-16,46.576065,2.223811e-16,1.961111e-16,0,0,0,0,0,0
3.390158,1.201924,-10.312207,1.891618e-12,0,0,1.891618e-12,-2.220446e-16,-1.110223e-16,-6.685931e-17,0,0,0,0,-7.963319e-17,-2.534337e-16,8.690027e-17,-19.850882,1.15867e-16,1.49649e-16,0,0,0,0,0,0
1.451249,1.154633,-10.084218,1.891618e-12,0,0,1.891618e-12,0,-1.110223e-16,-2.311816e-17,0,0,0,0,4.621512e-18,-1.156438e-16,6.013266e-17,33.695118,8.017688e-17,7.868164e-17,0,0,0,0,0,0
1.49854,1.154633,-10.174274,1.891618e-12,0,0,1.891618e-12,-1.110223e-16,0,2.369717e-17,0,0,0,0,4.84648e-18,-1.158688e-16,6.035763e-17,-56.558582,8.047684e-17,7.891097e-17,0,0,0,0,0,0
1.54583,1.154633,-10.278894,1.891618e-12,0,0,1.891618e-12,0,0,2.360207e-17,0,0,0,0,2.360207e-17,-2.360207e-17,2.360207e-17,90,3.146942e-17,2.725332e-17,0,0,0,0,0,0
1.593121,1.154633,-10.358481,1.891618e-12,0,0,1.891618e-12,2.220446e-16,-1.110223e-16,-1.470107e-18,0,0,0,0,2.220511e-16,-1.110288e-16,1.665399e-16,44.747112,2.220533e-16,1.958323e-16,0,0,0,0,0,0
1.640411,1.154633,-10.420225,1.891618e-12,0,0,1.891618e-12,-2.220446e-16,2.220446e-16,-1.751807e-17,0,0,0,0,2.227346e-16,-2.227346e-16,2.227346e-16,-42.744514,2.969794e-16,2.571917e-16,0,0,0,0,0,0
1.687701,1.154633,-10.471177,1.891618e-12,0,0,1.891618e-12,2.220446e-16,2.220446e-16,-1.245724e-17,0,0,0,0,2.345018e-16,2.095874e-16,1.245724e-17,0,1.660965e-17,1.48727e-16,0,0,0,0,0,0
1.734992,1.154633,-10.516507,1.891618e-12,0,0,1.891618e-12,2.220446e-16,0,1.336646e-18,0,0,0,0,2.220527e-16,-8.04594e-21,1.110303e-16,45.344887,1.480405e-16,1.480378e-16,0,0,0,0,0,0
1.782282,1.154633,-10.559659,1.891618e-12,0,0,1.891618e-12,0,0,2.17403e-17,0,0,0,0,2.17403e-17,-2.17403e-17,2.17403e-17,90,2.898707e-17,2.510354e-17,0,0,0,0,0,0
1.829573,1.154633,-10.600887,1.891618e-12,0,0,1.891618e-12,2.220446e-16,-1.110223e-16,-1.922328e-17,0,0,0,0,2.231504e-16,-1.121281e-16,1.676393e-16,41.707691,2.23519e-16,1.97079e-16,0,0,0,0,0,0
1.876863,1.154633,-10.638697,1.891618e-12,0,0,1.891618e-12,2.220446e-16,2.220446e-16,2.230991e-17,0,0,0,0,2.443545e-16,1.997347e-16,2.230991e-17,90,2.974655e-17,1.502546e-16,0,0,0,0,0,0
1.924154,1.154633,-10.671865,1.891618e-12,0,0,1.891618e-12,0,-1.110223e-16,3.294987e-17,0,0,0,0,9.042561e-18,-1.200649e-16,6.455371e-17,60.346092,8.607162e-17,8.322134e-17,0,0,0,0,0,0
1.971444,1.154633,-10.699679,1.891618e-12,0,0,1.891618e-12,-2.220446e-16,-1.110223e-16,-2.23019e-17,0,0,0,0,-1.067099e-16,-2.26357e-16,5.982359e-17,-34.055973,7.976479e-17,1.307584e-16,0,0,0,0,0,0
2.018735,1.154633,-10.722941,1.891618e-12,0,0,1.891618e-12,2.220446e-16,-1.110223e-16,-2.814762e-17,0,0,0,0,2.244066e-16,-1.133843e-16,1.688955e-16,40.203247,2.25194e-16,1.985039e-16,0,0,0,0,0,0
2.066025,1.154633,-10.743434,1.891618e-12,0,0,1.891618e-12,0,0,-8.207914e-18,0,0,0,0,8.207914e-18,-8.207914e-18,8.207914e-18,0,1.094388e-17,9.477682e-18,0,0,0,0,0,0
2.113316,1.154633,-10.76125,1.891618e-12,0,0,1.891618e-12,0,0,-1.987032e-17,0,0,0,0,1.987032e-17,-1.987032e-17,1.987032e-17,0,2.649376e-17,2.294427e-17,0,0,0,0,0,0
2.160606,1.154633,-10.776094,1.891618e-12,0,0,1.891618e-12,0,2.220446e-16,8.966053e-18,0,0,0,0,2.22406e-16,-3.614564e-19,1.113838e-16,-47.308567,1.485117e-16,1.483913e-16,0,0,0,0,0,0
2.207896,1.154633,-10.789075,1.891618e-12,0,0,1.891618e-12,0,2.220446e-16,-1.204723e-17,0,0,0,0,2.226963e-16,-6.517206e-19,1.11674e-16,-41.903481,1.488987e-16,1.486819e-16,0,0,0,0,0,0
2.255187,1.154633,-10.800136,1.891618e-12,0,0,1.891618e-12,0,0,-2.009495e-17,0,0,0,0,2.009495e-17,-2.009495e-17,2.009495e-17,0,2.679327e-17,2.320365e-17,0,0,0,0,0,0
2.302477,1.154633,-10.807979,1.891618e-12,0,0,1.891618e-12,2.220446e-16,0,2.16797e-19,0,0,0,0,2.220448e-16,-2.116731e-22,1.110225e-16,45.055943,1.4803e-16,1.4803e-16,0,0,0,0,0,0
2.349768,1.154633,-10.812947,1.891618e-12,0,0,1.891618e-12,-1.110223e-16,2.220446e-16,-7.818145e-18,0,0,0,0,2.22228e-16,-1.112057e-16,1.667169e-16,-43.656071,2.222892e-16,1.960329e-16,0,0,0,0,0,0
2.397058,1.154633,-10.815515,1.891618e-12,0,0,1.891618e-12,0,-1.110223e-16,1.497403e-17,0,0,0,0,1.984149e-18,-1.130065e-16,5.74953e-17,52.548061,7.66604e-17,7.600765e-17,0,0,0,0,0,0
2.444349,1.154633,-10.817864,1.891618e-12,0,0,1.891618e-12,0,-1.110223e-16,7.717004e-18,0,0,0,0,5.338312e-19,-1.115561e-16,5.604498e-17,48.957188,7.472664e-17,7.454934e-17,0,0,0,0,0,0
2.491639,1.154633,-10.821511,1.891618e-12,0,0,1.891618e-12,2.220446e-16,2.220446e-16,1.161514e-17,0,0,0,0,2.336598e-16,2.104295e-16,1.161514e-17,90,1.548685e-17,1.486361e-16,0,0,0,0,0,0
2.53893,1.154633,-10.825913,1.891618e-12,0,0,1.891618e-12,-1.110223e-16,2.220446e-16,3.335477e-17,0,0,0,0,2.253521e-16,-1.143298e-16,1.698409e-16,-50.662918,2.264545e-16,1.995765e-16,0,0,0,0,0,0
2.58622,1.154633,-10.828502,1.891618e-12,0,0,1.891618e-12,-1.110223e-16,2.220446e-16,1.587971e-17,0,0,0,0,2.228e-16,-1.117777e-16,1.672888e-16,-47.723469,2.230518e-16,1.966815e-16,0,0,0,0,0,0
2.633511,1.154633,-10.827164,1.891618e-12,0,0,1.891618e-12,-1.110223e-16,0,-2.086927e-17,0,0,0,0,3.79327e-18,-1.148156e-16,5.930442e-17,-34.698189,7.907256e-17,7.783895e-17,0,0,0,0,0,0
2.680801,1.154633,-10.820025,1.891618e-12,0,0,1.891618e-12,2.220446e-16,2.220446e-16,2.639573e-18,0,0,0,0,2.246842e-16,2.19405e-16,2.639573e-18,90,3.519431e-18,1.480611e-16,0,0,0,0,0,0
2.728091,1.154633,-10.807488,1.891618e-12,0,0,1.891618e-12,2.220446e-16,0,-1.232385e-17,0,0,0,0,2.227265e-16,-6.819007e-19,1.117042e-16,41.832951,1.489389e-16,1.487122e-16,0,0,0,0,0,0
2.775382,1.154633,-10.791771,1.891618e-12,0,0,1.891618e-12,2.220446e-16,0,5.534048e-17,0,0,0,0,2.350728e-16,-1.302817e-17,1.240505e-16,58.247272,1.654006e-16,1.612335e-16,0,0,0,0,0,0
2.822672,1.154633,-10.775021,1.891618e-12,0,0,1.891618e-12,-2.220446e-16,-1.110223e-16,-1.335029e-17,0,0,0,0,-1.094395e-16,-2.236274e-16,5.709394e-17,-38.238659,7.612525e-17,1.29121e-16,0,0,0,0,0,0
2.869963,1.154633,-10.757544,1.891618e-12,0,0,1.891618e-12,2.220446e-16,2.220446e-16,-2.422264e-17,0,0,0,0,2.462673e-16,1.97822e-16,2.422264e-17,0,3.229686e-17,1.50649e-16,0,0,0,0,0,0
2.917253,1.154633,-10.738323,1.891618e-12,0,0,1.891618e-12,2.220446e-16,-1.110223e-16,3.467039e-17,0,0,0,0,2.256153e-16,-1.14593e-16,1.701042e-16,50.880177,2.268056e-16,1.998753e-16,0,0,0,0,0,0
2.964544,1.154633,-10.714899,1.891618e-12,0,0,1.891618e-12,-2.220446e-16,2.220446e-16,-2.016711e-17,0,0,0,0,2.229586e-16,-2.229586e-16,2.229586e-16,-42.405186,2.972781e-16,2.574504e-16,0,0,0,0,0,0
3.011834,1.154633,-10.687193,1.891618e-12,0,0,1.891618e-12,2.220446e-16,-1.110223e-16,3.244254e-17,0,0,0,0,2.251753e-16,-1.14153e-16,1.696641e-16,50.511887,2.262188e-16,1.993759e-16,0,0,0,0,0,0
3.059125,1.154633,-10.656688,1.891618e-12,0,0,1.891618e-12,0,4.440892e-16,-1.329777e-17,0,0,0,0,4.444871e-16,-3.978306e-19,2.224424e-16,-43.286388,2.965899e-16,2.964574e-16,0,0,0,0,0,0
3.106415,1.154633,-10.624503,1.891618e-12,0,0,1.891618e-12,-2.220446e-16,2.220446e-16,4.62759e-18,0,0,0,0,2.220928e-16,-2.220928e-16,2.220928e-16,-45.596958,2.961238e-16,2.564507e-16,0,0,0,0,0,0
3.153705,1.154633,-10.590685,1.891618e-12,0,0,1.891618e-12,2.220446e-16,2.220446e-16,4.899837e-18,0,0,0,0,2.269445e-16,2.171448e-16,4.899837e-18,90,6.533115e-18,1.481378e-16,0,0,0,0,0,0
3.200996,1.154633,-10.55331,1.891618e-12,0,0,1.891618e-12,-2.220446e-16,-2.220446e-16,2.576375e-17,0,0,0,0,-1.962809e-16,-2.478084e-16,2.576375e-17,90,3.435167e-17,1.509895e-16,0,0,0,0,0,0
3.248286,1.154633,-10.508189,1.891618e-12,0,0,1.891618e-12,0,-1.110223e-16,-5.115754e-17,0,0,0,0,1.99778e-17,-1.310001e-16,7.548895e-17,23.668596,1.006519e-16,9.469772e-17,0,0,0,0,0,0
3.295577,1.154633,-10.451998,1.891618e-12,0,0,1.891618e-12,2.220446e-16,-1.110223e-16,-4.00771e-19,0,0,0,0,2.220451e-16,-1.110228e-16,1.665339e-16,44.931057,2.220452e-16,1.958255e-16,0,0,0,0,0,0
3.342867,1.154633,-10.381015,1.891618e-12,0,0,1.891618e-12,0,2.220446e-16,2.57007e-17,0,0,0,0,2.249805e-16,-2.935924e-18,1.139582e-16,-51.516945,1.519443e-16,1.509752e-16,0,0,0,0,0,0
3.390158,1.154633,-10.311922,1.891618e-12,0,0,1.891618e-12,2.220446e-16,-1.110223e-16,-2.608037e-17,0,0,0,0,2.240744e-16,-1.130521e-16,1.685633e-16,40.549679,2.24751e-16,1.98127e-16,0,0,0,0,0,0
1.451249,1.107343,-10.094262,1.891618e-12,0,0,1.891618e-12,-3.330669e-16,0,-3.489066e-17,0,0,0,0,3.615744e-18,-3.366827e-16,1.701492e-16,-39.083515,2.268656e-16,2.2567e-16,0,0,0,0,0,0
1.49854,1.107343,-10.181355,1.891618e-12,0,0,1.891618e-12,-1.110223e-16,0,3.611822e-17,0,0,0,0,1.071584e-17,-1.217381e-16,6.622698e-17,-61.524979,8.830265e-17,8.495627e-17,0,0,0,0,0,0
1.54583,1.107343,-10.282325,1.891618e-12,0,0,1.891618e-12,0,2.220446e-16,-3.929721e-17,0,0,0,0,2.287942e-16,-6.749604e-18,1.177719e-16,-35.254093,1.570292e-16,1.548284e-16,0,0,0,0,0,0
1.593121,1.107343,-10.360433,1.891618e-12,0,0,1.891618e-12,-3.330669e-16,2.220446e-16,1.89003e-19,0,0,0,0,2.220447e-16,-3.33067e-16,2.775558e-16,-45.019508,3.700744e-16,3.226234e-16,0,0,0,0,0,0
1.640411,1.107343,-10.421892,1.891618e-12,0,0,1.891618e-12,2.220446e-16,0,-4.177417e-17,0,0,0,0,2.296437e-16,-7.599082e-18,1.186214e-16,34.690136,1.581618e-16,1.556907e-16,0,0,0,0,0,0
1.687701,1.107343,-10.473451,1.891618e-12,0,0,1.891618e-12,2.220446e-16,2.220446e-16,8.396119e-18,0,0,0,0,2.304407e-16,2.136485e-16,8.396119e-18,90,1.119483e-17,1.483469e-16,0,0,0,0,0,0
1.734992,1.107343,-10.519353,1.891618e-12,0,0,1.891618e-12,0,2.220446e-16,-1.144858e-17,0,0,0,0,2.226333e-16,-5.887259e-19,1.11611e-16,-42.056244,1.488147e-16,1.486189e-16,0,0,0,0,0,0
1.782282,1.107343,-10.562618,1.891618e-12,0,0,1.891618e-12,2.220446e-16,0,2.477915e-19,0,0,0,0,2.220449e-16,-2.765236e-22,1.110226e-16,45.063938,1.480301e-16,1.4803e-16,0,0,0,0,0,0
1.829573,1.107343,-10.603406,1.891618e-12,0,0,1.891618e-12,2.220446e-16,-1.110223e-16,-4.77195e-18,0,0,0,0,2.221129e-16,-1.110907e-16,1.666018e-16,44.179329,2.221357e-16,1.959024e-16,0,0,0,0,0,0
1.876863,1.107343,-10.640625,1.891618e-12,0,0,1.891618e-12,2.220446e-16,0,1.461356e-17,0,0,0,0,2.230023e-16,-9.576411e-19,1.119799e-16,48.74929,1.493066e-16,1.489884e-16,0,0,0,0,0,0
1.924154,1.107343,-10.673384,1.891618e-12,0,0,1.891618e-12,2.220446e-16,-1.110223e-16,2.624626e-17,0,0,0,0,2.241002e-16,-1.130779e-16,1.68589e-16,49.478172,2.247854e-16,1.981562e-16,0,0,0,0,0,0
1.971444,1.107343,-10.700795,1.891618e-12,0,0,1.891618e-12,2.220446e-16,2.220446e-16,3.370288e-17,0,0,0,0,2.557475e-16,1.883417e-16,3.370288e-17,90,4.493717e-17,1.530598e-16,0,0,0,0,0,0
2.018735,1.107343,-10.723912,1.891618e-12,0,0,1.891618e-12,0,0,3.191712e-17,0,0,0,0,3.191712e-17,-3.191712e-17,3.191712e-17,90,4.255617e-17,3.685472e-17,0,0,0,0,0,0
2.066025,1.107343,-10.744644,1.891618e-12,0,0,1.891618e-12,2.220446e-16,0,-2.007984e-17,0,0,0,0,2.238458e-16,-1.801239e-18,1.128235e-16,39.874065,1.504314e-16,1.498346e-16,0,0,0,0,0,0
2.113316,1.107343,-10.762861,1.891618e-12,0,0,1.891618e-12,2.220446e-16,-1.110223e-16,4.680687e-18,0,0,0,0,2.221104e-16,-1.110881e-16,1.665992e-16,45.804981,2.221323e-16,1.958995e-16,0,0,0,0,0,0
2.160606,1.107343,-10.777336,1.891618e-12,0,0,1.891618e-12,2.220446e-16,-4.440892e-16,8.752071e-18,0,0,0,0,2.221596e-16,-4.442042e-16,3.331819e-16,45.752613,4.442425e-16,3.917802e-16,0,0,0,0,0,0
2.207896,1.107343,-10.789068,1.891618e-12,0,0,1.891618e-12,2.220446e-16,0,3.960928e-17,0,0,0,0,2.288987e-16,-6.8541e-18,1.178764e-16,54.817402,1.571685e-16,1.549344e-16,0,0,0,0,0,0
2.255187,1.107343,-10.798186,1.891618e-12,0,0,1.891618e-12,0,-1.110223e-16,7.448151e-18,0,0,0,0,4.974451e-19,-1.115197e-16,5.60086e-17,48.82098,7.467813e-17,7.451287e-17,0,0,0,0,0,0
2.302477,1.107343,-10.804489,1.891618e-12,0,0,1.891618e-12,2.220446e-16,-1.110223e-16,-2.742529e-17,0,0,0,0,2.242877e-16,-1.132654e-16,1.687766e-16,40.324139,2.250355e-16,1.98369e-16,0,0,0,0,0,0
2.349768,1.107343,-10.80892,1.891618e-12,0,0,1.891618e-12,2.220446e-16,2.220446e-16,-2.925319e-17,0,0,0,0,2.512978e-16,1.927914e-16,2.925319e-17,0,3.900425e-17,1.518348e-16,0,0,0,0,0,0
2.397058,1.107343,-10.812055,1.891618e-12,0,0,1.891618e-12,4.440892e-16,0,1.392807e-17,0,0,0,0,4.445256e-16,-4.364001e-19,2.22481e-16,46.794628,2.966413e-16,2.96496e-16,0,0,0,0,0,0
2.444349,1.107343,-10.815435,1.891618e-12,0,0,1.891618e-12,-1.110223e-16,0,-3.473575e-17,0,0,0,0,9.972133e-18,-1.209944e-16,6.548328e-17,-28.981993,8.731104e-17,8.418411e-17,0,0,0,0,0,0
2.491639,1.107343,-10.82038,1.891618e-12,0,0,1.891618e-12,-4.440892e-16,0,2.457599e-17,0,0,0,0,1.3559e-18,-4.454451e-16,2.234005e-16,-48.157906,2.978673e-16,2.974164e-16,0,0,0,0,0,0
2.53893,1.107343,-10.825715,1.891618e-12,0,0,1.891618e-12,-4.440892e-16,0,5.210862e-17,0,0,0,0,6.032388e-18,-4.501216e-16,2.28077e-16,-51.603489,3.041027e-16,3.021119e-16,0,0,0,0,0,0
2.58622,1.107343,-10.828612,1.891618e-12,0,0,1.891618e-12,0,2.220446e-16,5.878578e-18,0,0,0,0,2.222001e-16,-1.55525e-19,1.111778e-16,-46.515476,1.482371e-16,1.481853e-16,0,0,0,0,0,0
2.633511,1.107343,-10.827114,1.891618e-12,0,0,1.891618e-12,-1.110223e-16,-1.110223e-16,-1.967499e-17,0,0,0,0,-9.134732e-17,-1.306973e-16,1.967499e-17,0,2.623331e-17,7.742313e-17,0,0,0,0,0,0
2.680801,1.107343,-10.819659,1.891618e-12,0,0,1.891618e-12,2.220446e-16,0,3.517559e-17,0,0,0,0,2.274838e-16,-5.439166e-18,1.164615e-16,53.789974,1.55282e-16,1.53501e-16,0,0,0,0,0,0
2.728091,1.107343,-10.806887,1.891618e-12,0,0,1.891618e-12,-1.110223e-16,0,-9.712502e-18,0,0,0,0,8.432684e-19,-1.118656e-16,5.635442e-17,-40.037853,7.513923e-17,7.485972e-17,0,0,0,0,0,0
2.775382,1.107343,-10.791296,1.891618e-12,0,0,1.891618e-12,-1.110223e-16,2.220446e-16,-4.354622e-17,0,0,0,0,2.276438e-16,-1.166215e-16,1.721327e-16,-37.673023,2.295102e-16,2.021776e-16,0,0,0,0,0,0
2.822672,1.107343,-10.774737,1.891618e-12,0,0,1.891618e-12,2.220446e-16,2.220446e-16,4.734239e-17,0,0,0,0,2.69387e-16,1.747022e-16,4.734239e-17,90,6.312318e-17,1.578012e-16,0,0,0,0,0,0
2.869963,1.107343,-10.75714,1.891618e-12,0,0,1.891618e-12,2.220446e-16,-1.110223e-16,-1.748818e-17,0,0,0,0,2.229603e-16,-1.11938e-16,1.674492e-16,42.002583,2.232656e-16,1.968634e-16,0,0,0,0,0,0
2.917253,1.107343,-10.737387,1.891618e-12,0,0,1.891618e-12,-3.330669e-16,2.220446e-16,-1.119103e-17,0,0,0,0,2.222701e-16,-3.332924e-16,2.777813e-16,-43.845543,3.70375e-16,3.22882e-16,0,0,0,0,0,0
2.964544,1.107343,-10.713158,1.891618e-12,0,0,1.891618e-12,2.220446e-16,2.220446e-16,-2.289445e-17,0,0,0,0,2.449391e-16,1.991502e-16,2.289445e-17,0,3.052593e-17,1.503718e-16,0,0,0,0,0,0
3.011834,1.107343,-10.684996,1.891618e-12,0,0,1.891618e-12,-1.110223e-16,2.220446e-16,3.859949e-18,0,0,0,0,2.220893e-16,-1.11067e-16,1.665782e-16,-45.663887,2.221042e-16,1.958757e-16,0,0,0,0,0,0
3.059125,1.107343,-10.654548,1.891618e-12,0,0,1.891618e-12,-2.220446e-16,2.220446e-16,7.869835e-18,0,0,0,0,2.22184e-16,-2.22184e-16,2.22184e-16,-46.014931,2.962454e-16,2.56556e-16,0,0,0,0,0,0
3.106415,1.107343,-10.623063,1.891618e-12,0,0,1.891618e-12,-4.440892e-16,-1.110223e-16,2.026391e-17,0,0,0,0,-1.09794e-16,-4.453176e-16,1.677618e-16,-48.468842,2.236824e-16,2.678883e-16,0,0,0,0,0,0
3.153705,1.107343,-10.590512,1.891618e-12,0,0,1.891618e-12,4.440892e-16,-2.220446e-16,-1.70044e-17,0,0,0,0,4.44523e-16,-2.224784e-16,3.335007e-16,43.538681,4.446676e-16,3.921418e-16,0,0,0,0,0,0
3.200996,1.107343,-10.554018,1.891618e-12,0,0,1.891618e-12,2.220446e-16,-1.110223e-16,-9.685904e-18,0,0,0,0,2.22326e-16,-1.113037e-16,1.668149e-16,43.335659,2.224199e-16,1.961441e-16,0,0,0,0,0,0
3.248286,1.107343,-10.509094,1.891618e-12,0,0,1.891618e-12,2.220446e-16,-2.220446e-16,-2.18682e-17,0,0,0,0,2.231189e-16,-2.231189e-16,2.231189e-16,42.187664,2.974918e-16,2.576355e-16,0,0,0,0,0,0
3.295577,1.107343,-10.453532,1.891618e-12,0,0,1.891618e-12,2.220446e-16,2.220446e-16,1.766811e-17,0,0,0,0,2.397127e-16,2.043765e-16,1.766811e-17,90,2.355748e-17,1.49429e-16,0,0,0,0,0,0
3.342867,1.107343,-10.381488,1.891618e-12,0,0,1.891618e-12,2.220446e-16,2.220446e-16,-4.326874e-17,0,0,0,0,2.653134e-16,1.787759e-16,4.326874e-17,0,5.769165e-17,1.56234e-16,0,0,0,0,0,0
3.390158,1.107343,-10.308141,1.891618e-12,0,0,1.891618e-12,-2.220446e-16,-2.220446e-16,1.921167e-16,0,0,0,0,-2.992792e-17,-4.141613e-16,1.921167e-16,90,2.561556e-16,2.666919e-16,0,0,0,0,0,0
1.451249,1.060052,-10.101006,1.891618e-12,0,0,1.891618e-12,-3.330669e-16,-1.110223e-16,9.830678e-18,0,0,0,0,-1.105879e-16,-3.335013e-16,1.114567e-16,-47.530083,1.486089e-16,1.961537e-16,0,0,0,0,0,0
1.49854,1.060052,-10.185369,1.891618e-12,0,0,1.891618e-12,-2.220446e-16,2.220446e-16,3.284941e-17,0,0,0,0,2.244613e-16,-2.244613e-16,2.244613e-16,-49.207664,2.992818e-16,2.591856e-16,0,0,0,0,0,0
1.54583,1.060052,-10.28333,1.891618e-12,0,0,1.891618e-12,2.220446e-16,0,-1.838094e-17,0,0,0,0,2.235559e-16,-1.511296e-18,1.125336e-16,40.299667,1.500448e-16,1.495436e-16,0,0,0,0,0,0
1.593121,1.060052,-10.360527,1.891618e-12,0,0,1.891618e-12,-3.330669e-16,2.220446e-16,2.359993e-17,0,0,0,0,2.230461e-16,-3.340684e-16,2.785573e-16,-47.430019,3.714097e-16,3.237722e-16,0,0,0,0,0,0
1.640411,1.060052,-10.421691,1.891618e-12,0,0,1.891618e-12,2.220446e-16,4.440892e-16,1.720017e-17,0,0,0,0,4.454137e-16,2.207201e-16,1.123468e-16,-49.403278,1.497957e-16,2.571631e-16,0,0,0,0,0,0
1.687701,1.060052,-10.473729,1.891618e-12,0,0,1.891618e-12,-2.220446e-16,-1.110223e-16,-1.706603e-17,0,0,0,0,-1.084582e-16,-2.246087e-16,5.807527e-17,-36.455387,7.743369e-17,1.297033e-16,0,0,0,0,0,0
1.734992,1.060052,-10.520123,1.891618e-12,0,0,1.891618e-12,2.220446e-16,2.220446e-16,-1.492956e-17,0,0,0,0,2.369742e-16,2.07115e-16,1.492956e-17,0,1.990608e-17,1.490302e-16,0,0,0,0,0,0
1.782282,1.060052,-10.563232,1.891618e-12,0,0,1.891618e-12,2.220446e-16,-1.110223e-16,1.361092e-17,0,0,0,0,2.225999e-16,-1.115776e-16,1.670887e-16,47.336224,2.22785e-16,1.964546e-16,0,0,0,0,0,0
1.829573,1.060052,-10.603211,1.891618e-12,0,0,1.891618e-12,0,-1.110223e-16,1.081018e-17,0,0,0,0,1.042787e-18,-1.120651e-16,5.655393e-17,50.509899,7.540525e-17,7.506007e-17,0,0,0,0,0,0
1.876863,1.060052,-10.639108,1.891618e-12,0,0,1.891618e-12,-2.220446e-16,2.220446e-16,-1.004607e-17,0,0,0,0,2.222717e-16,-2.222717e-16,2.222717e-16,-43.704754,2.963623e-16,2.566573e-16,0,0,0,0,0,0
1.924154,1.060052,-10.670747,1.891618e-12,0,0,1.891618e-12,0,2.220446e-16,2.020476e-18,0,0,0,0,2.22063e-16,-1.838364e-20,1.110407e-16,-45.521301,1.480543e-16,1.480481e-16,0,0,0,0,0,0
1.971444,1.060052,-10.697856,1.891618e-12,0,0,1.891618e-12,0,-4.440892e-16,-3.496144e-18,0,0,0,0,2.752209e-20,-4.441167e-16,2.220721e-16,44.548969,2.960962e-16,2.96087e-16,0,0,0,0,0,0
2.018735,1.060052,-10.721583,1.891618e-12,0,0,1.891618e-12,0,-4.440892e-16,-1.692093e-17,0,0,0,0,6.437971e-19,-4.44733e-16,2.226884e-16,42.821095,2.969179e-16,2.967035e-16,0,0,0,0,0,0
2.066025,1.060052,-10.743648,1.891618e-12,0,0,1.891618e-12,0,2.220446e-16,6.896012e-18,0,0,0,0,2.222586e-16,-2.139624e-19,1.112363e-16,-46.777145,1.48315e-16,1.482437e-16,0,0,0,0,0,0
2.113316,1.060052,-10.76335,1.891618e-12,0,0,1.891618e-12,0,0,-8.138367e-17,0,0,0,0,8.138367e-17,-8.138367e-17,8.138367e-17,0,1.085116e-16,9.397376e-17,0,0,0,0,0,0
2.160606,1.060052,-10.778522,1.891618e-12,0,0,1.891618e-12,0,2.220446e-16,3.601952e-17,0,0,0,0,2.277414e-16,-5.696838e-18,1.167191e-16,-53.987438,1.556255e-16,1.537618e-16,0,0,0,0,0,0
2.207896,1.060052,-10.789873,1.891618e-12,0,0,1.891618e-12,-2.220446e-16,0,5.689911e-17,0,0,0,0,1.37313e-17,-2.357759e-16,1.247536e-16,-58.567608,1.663381e-16,1.619552e-16,0,0,0,0,0,0
2.255187,1.060052,-10.797605,1.891618e-12,0,0,1.891618e-12,-1.110223e-16,-1.110223e-16,-7.231265e-18,0,0,0,0,-1.03791e-16,-1.182536e-16,7.231265e-18,0,9.641687e-18,7.448438e-17,0,0,0,0,0,0
2.302477,1.060052,-10.802154,1.891618e-12,0,0,1.891618e-12,0,0,1.110102e-17,0,0,0,0,1.110102e-17,-1.110102e-17,1.110102e-17,90,1.480135e-17,1.281835e-17,0,0,0,0,0,0
2.349768,1.060052,-10.805427,1.891618e-12,0,0,1.891618e-12,0,0,1.562599e-17,0,0,0,0,1.562599e-17,-1.562599e-17,1.562599e-17,90,2.083465e-17,1.804334e-17,0,0,0,0,0,0
2.397058,1.060052,-10.808305,1.891618e-12,0,0,1.891618e-12,2.220446e-16,2.220446e-16,-1.285541e-17,0,0,0,0,2.349e-16,2.091892e-16,1.285541e-17,0,1.714054e-17,1.487722e-16,0,0,0,0,0,0
2.444349,1.060052,-10.812293,1.891618e-12,0,0,1.891618e-12,-2.220446e-16,-1.110223e-16,-4.414172e-18,0,0,0,0,-1.108471e-16,-2.222198e-16,5.568638e-17,-42.726742,7.424851e-17,1.282988e-16,0,0,0,0,0,0
2.491639,1.060052,-10.818397,1.891618e-12,0,0,1.891618e-12,2.220446e-16,0,2.533202e-17,0,0,0,0,2.248979e-16,-2.853344e-18,1.138757e-16,51.426586,1.518342e-16,1.508921e-16,0,0,0,0,0,0
2.53893,1.060052,-10.824437,1.891618e-12,0,0,1.891618e-12,2.220446e-16,0,3.321983e-17,0,0,0,0,2.269081e-16,-4.863456e-18,1.158858e-16,53.329056,1.545143e-16,1.52919e-16,0,0,0,0,0,0
2.58622,1.060052,-10.827614,1.891618e-12,0,0,1.891618e-12,2.220446e-16,0,-2.582507e-17,0,0,0,0,2.250086e-16,-2.964039e-18,1.139863e-16,38.452602,1.519818e-16,1.510035e-16,0,0,0,0,0,0
2.633511,1.060052,-10.826063,1.891618e-12,0,0,1.891618e-12,-1.110223e-16,-1.110223e-16,2.485748e-18,0,0,0,0,-1.085366e-16,-1.135081e-16,2.485748e-18,90,3.314331e-18,7.40705e-17,0,0,0,0,0,0
2.680801,1.060052,-10.818746,1.891618e-12,0,0,1.891618e-12,-2.220446e-16,2.220446e-16,5.980853e-17,0,0,0,0,2.299584e-16,-2.299584e-16,2.299584e-16,-52.537529,3.066112e-16,2.655331e-16,0,0,0,0,0,0
2.728091,1.060052,-10.806786,1.891618e-12,0,0,1.891618e-12,2.220446e-16,2.220446e-16,8.661225e-18,0,0,0,0,2.307058e-16,2.133834e-16,8.661225e-18,90,1.15483e-17,1.483672e-16,0,0,0,0,0,0
2.775382,1.060052,-10.792103,1.891618e-12,0,0,1.891618e-12,2.220446e-16,-2.220446e-16,-4.581577e-17,0,0,0,0,2.267221e-16,-2.267221e-16,2.267221e-16,39.170719,3.022961e-16,2.617961e-16,0,0,0,0,0,0
2.822672,1.060052,-10.776165,1.891618e-12,0,0,1.891618e-12,2.220446e-16,2.220446e-16,1.756822e-17,0,0,0,0,2.396128e-16,2.044764e-16,1.756822e-17,90,2.342429e-17,1.494133e-16,0,0,0,0,0,0
2.869963,1.060052,-10.758706,1.891618e-12,0,0,1.891618e-12,0,2.220446e-16,5.237444e-19,0,0,0,0,2.220458e-16,-1.235367e-21,1.110235e-16,-45.135143,1.480314e-16,1.48031e-16,0,0,0,0,0,0
2.917253,1.060052,-10.738313,1.891618e-12,0,0,1.891618e-12,0,0,-5.484164e-17,0,0,0,0,5.484164e-17,-5.484164e-17,5.484164e-17,0,7.312219e-17,6.332568e-17,0,0,0,0,0,0
2.964544,1.060052,-10.713641,1.891618e-12,0,0,1.891618e-12,0,0,-4.780857e-18,0,0,0,0,4.780857e-18,-4.780857e-18,4.780857e-18,0,6.374475e-18,5.520458e-18,0,0,0,0,0,0
3.011834,1.060052,-10.68523,1.891618e-12,0,0,1.891618e-12,2.220446e-16,-1.110223e-16,-4.015097e-17,0,0,0,0,2.268164e-16,-1.157941e-16,1.713053e-16,38.222385,2.28407e-16,2.012384e-16,0,0,0,0,0,0
3.059125,1.060052,-10.654686,1.891618e-12,0,0,1.891618e-12,-2.220446e-16,-1.110223e-16,-1.024041e-17,0,0,0,0,-1.100857e-16,-2.229812e-16,5.64478e-17,-39.773941,7.526373e-17,1.287417e-16,0,0,0,0,0,0
3.106415,1.060052,-10.623422,1.891618e-12,0,0,1.891618e-12,-2.220446e-16,-1.110223e-16,2.385058e-17,0,0,0,0,-1.061154e-16,-2.269515e-16,6.041803e-17,-56.625481,8.055737e-17,1.311223e-16,0,0,0,0,0,0
3.153705,1.060052,-10.591269,1.891618e-12,0,0,1.891618e-12,-2.220446e-16,2.220446e-16,-2.62036e-17,0,0,0,0,2.235854e-16,-2.235854e-16,2.235854e-16,-41.634811,2.981139e-16,2.581742e-16,0,0,0,0,0,0
3.200996,1.060052,-10.555263,1.891618e-12,0,0,1.891618e-12,-2.220446e-16,-1.110223e-16,-2.683385e-17,0,0,0,0,-1.048768e-16,-2.281901e-16,6.165666e-17,-32.10054,8.220888e-17,1.318889e-16,0,0,0,0,0,0
3.248286,1.060052,-10.51041,1.891618e-12,0,0,1.891618e-12,-3.330669e-16,2.220446e-16,2.344431e-17,0,0,0,0,2.23033e-16,-3.340553e-16,2.785441e-16,-47.41407,3.713922e-16,3.237571e-16,0,0,0,0,0,0
3.295577,1.060052,-10.453586,1.891618e-12,0,0,1.891618e-12,0,0,2.647081e-17,0,0,0,0,2.647081e-17,-2.647081e-17,2.647081e-17,90,3.529441e-17,3.056586e-17,0,0,0,0,0,0
3.342867,1.060052,-10.393582,1.891618e-12,0,0,1.891618e-12,-4.440892e-16,-1.110223e-16,-2.786895e-19,0,0,0,0,-1.110221e-16,-4.440894e-16,1.665337e-16,-44.952057,2.220449e-16,2.668646e-16,0,0,0,0,0,0
1.451249,1.012762,-10.103402,1.891618e-12,0,0,1.891618e-12,0,0,-1.499285e-17,0,0,0,0,1.499285e-17,-1.499285e-17,1.499285e-17,0,1.999047e-17,1.731225e-17,0,0,0,0,0,0
1.49854,1.012762,-10.185961,1.891618e-12,0,0,1.891618e-12,-1.110223e-16,0,-4.984566e-18,0,0,0,0,2.233427e-19,-1.112456e-16,5.57345e-17,-42.434471,7.431266e-17,7.423832e-17,0,0,0,0,0,0
1.54583,1.012762,-10.282208,1.891618e-12,0,0,1.891618e-12,0,0,-2.302717e-17,0,0,0,0,2.302717e-17,-2.302717e-17,2.302717e-17,0,3.070289e-17,2.658948e-17,0,0,0,0,0,0
1.593121,1.012762,-10.359406,1.891618e-12,0,0,1.891618e-12,2.220446e-16,2.220446e-16,7.599699e-18,0,0,0,0,2.296443e-16,2.144449e-16,7.599699e-18,90,1.013293e-17,1.482896e-16,0,0,0,0,0,0
1.640411,1.012762,-10.420727,1.891618e-12,0,0,1.891618e-12,-2.220446e-16,0,-5.936298e-17,0,0,0,0,1.487415e-17,-2.369187e-16,1.258965e-16,-30.93342,1.678619e-16,1.631301e-16,0,0,0,0,0,0
1.687701,1.012762,-10.473392,1.891618e-12,0,0,1.891618e-12,2.220446e-16,2.220446e-16,9.08808e-18,0,0,0,0,2.311327e-16,2.129565e-16,9.08808e-18,90,1.211744e-17,1.484012e-16,0,0,0,0,0,0
1.734992,1.012762,-10.52033,1.891618e-12,0,0,1.891618e-12,2.220446e-16,2.220446e-16,-1.210987e-17,0,0,0,0,2.341545e-16,2.099347e-16,1.210987e-17,0,1.614649e-17,1.486887e-16,0,0,0,0,0,0
1.782282,1.012762,-10.56318,1.891618e-12,0,0,1.891618e-12,-2.220446e-16,-2.220446e-16,1.030036e-17,0,0,0,0,-2.117442e-16,-2.323449e-16,1.030036e-17,90,1.373381e-17,1.485068e-16,0,0,0,0,0,0
1.829573,1.012762,-10.602341,1.891618e-12,0,0,1.891618e-12,-4.440892e-16,2.220446e-16,1.438169e-17,0,0,0,0,2.22355e-16,-4.443995e-16,3.333773e-16,-46.236237,4.44503e-16,3.920018e-16,0,0,0,0,0,0
1.876863,1.012762,-10.636845,1.891618e-12,0,0,1.891618e-12,2.220446e-16,0,-2.673316e-17,0,0,0,0,2.252178e-16,-3.173203e-18,1.141955e-16,38.230713,1.522607e-16,1.51214e-16,0,0,0,0,0,0
1.924154,1.012762,-10.667102,1.891618e-12,0,0,1.891618e-12,-2.220446e-16,0,1.698314e-17,0,0,0,0,1.291449e-18,-2.233361e-16,1.123137e-16,-49.348576,1.497517e-16,1.49323e-16,0,0,0,0,0,0
1.971444,1.012762,-10.694014,1.891618e-12,0,0,1.891618e-12,-1.110223e-16,-1.110223e-16,2.429448e-17,0,0,0,0,-8.672782e-17,-1.353168e-16,2.429448e-17,90,3.239264e-17,7.915278e-17,0,0,0,0,0,0
2.018735,1.012762,-10.718766,1.891618e-12,0,0,1.891618e-12,2.220446e-16,0,6.36126e-17,0,0,0,0,2.389774e-16,-1.693282e-17,1.279551e-16,59.905735,1.706068e-16,1.65252e-16,0,0,0,0,0,0
2.066025,1.012762,-10.742967,1.891618e-12,0,0,1.891618e-12,-2.220446e-16,-4.440892e-16,2.863814e-17,0,0,0,0,-2.184105e-16,-4.477234e-16,1.146564e-16,52.232056,1.528752e-16,2.585187e-16,0,0,0,0,0,0
2.113316,1.012762,-10.765222,1.891618e-12,0,0,1.891618e-12,-1.110223e-16,0,1.177025e-17,0,0,0,0,1.234127e-18,-1.122564e-16,5.674528e-17,-50.985672,7.566037e-17,7.525237e-17,0,0,0,0,0,0
2.160606,1.012762,-10.782413,1.891618e-12,0,0,1.891618e-12,2.220446e-16,-1.110223e-16,-2.685552e-17,0,0,0,0,2.241961e-16,-1.131738e-16,1.686849e-16,40.419617,2.249133e-16,1.982651e-16,0,0,0,0,0,0
2.207896,1.012762,-10.794407,1.891618e-12,0,0,1.891618e-12,0,0,7.841575e-18,0,0,0,0,7.841575e-18,-7.841575e-18,7.841575e-18,90,1.045543e-17,9.05467e-18,0,0,0,0,0,0
2.255187,1.012762,-10.801268,1.891618e-12,0,0,1.891618e-12,-2.220446e-16,2.220446e-16,5.315828e-17,0,0,0,0,2.283191e-16,-2.283191e-16,2.283191e-16,-51.731709,3.044255e-16,2.636402e-16,0,0,0,0,0,0
2.302477,1.012762,-10.804122,1.891618e-12,0,0,1.891618e-12,2.220446e-16,-1.110223e-16,1.387759e-17,0,0,0,0,2.226218e-16,-1.115995e-16,1.671107e-16,47.381786,2.228142e-16,1.964795e-16,0,0,0,0,0,0
2.349768,1.012762,-10.805959,1.891618e-12,0,0,1.891618e-12,-1.110223e-16,0,1.844117e-18,0,0,0,0,3.062295e-20,-1.110529e-16,5.554178e-17,-45.951351,7.40557e-17,7.40455e-17,0,0,0,0,0,0
2.397058,1.012762,-10.808074,1.891618e-12,0,0,1.891618e-12,-2.220446e-16,2.220446e-16,3.659359e-18,0,0,0,0,2.220748e-16,-2.220748e-16,2.220748e-16,-45.472084,2.960997e-16,2.564298e-16,0,0,0,0,0,0
2.444349,1.012762,-10.812135,1.891618e-12,0,0,1.891618e-12,-1.110223e-16,2.220446e-16,1.315628e-17,0,0,0,0,2.225635e-16,-1.115412e-16,1.670523e-16,-47.258518,2.227364e-16,1.964133e-16,0,0,0,0,0,0
2.491639,1.012762,-10.818604,1.891618e-12,0,0,1.891618e-12,2.220446e-16,-2.220446e-16,-1.34924e-17,0,0,0,0,2.224541e-16,-2.224541e-16,2.224541e-16,43.261368,2.966056e-16,2.568679e-16,0,0,0,0,0,0
2.53893,1.012762,-10.824605,1.891618e-12,0,0,1.891618e-12,2.220446e-16,0,2.597589e-17,0,0,0,0,2.250429e-16,-2.998303e-18,1.140206e-16,51.584309,1.520275e-16,1.51038e-16,0,0,0,0,0,0
2.58622,1.012762,-10.827488,1.891618e-12,0,0,1.891618e-12,0,2.220446e-16,2.604373e-17,0,0,0,0,2.250584e-16,-3.013776e-18,1.140361e-16,-51.600899,1.520481e-16,1.510535e-16,0,0,0,0,0,0
2.633511,1.012762,-10.825573,1.891618e-12,0,0,1.891618e-12,-2.220446e-16,2.220446e-16,-2.211141e-17,0,0,0,0,2.231428e-16,-2.231428e-16,2.231428e-16,-42.15659,2.975238e-16,2.576631e-16,0,0,0,0,0,0
2.680801,1.012762,-10.818488,1.891618e-12,0,0,1.891618e-12,2.220446e-16,-1.110223e-16,4.652835e-17,0,0,0,0,2.284223e-16,-1.174e-16,1.729112e-16,52.805008,2.305483e-16,2.030614e-16,0,0,0,0,0,0
2.728091,1.012762,-10.807803,1.891618e-12,0,0,1.891618e-12,-1.110223e-16,2.220446e-16,2.124005e-18,0,0,0,0,2.220582e-16,-1.110358e-16,1.66547e-16,-45.36536,2.220627e-16,1.958403e-16,0,0,0,0,0,0
2.775382,1.012762,-10.794657,1.891618e-12,0,0,1.891618e-12,0,-1.110223e-16,-1.106143e-17,0,0,0,0,1.091351e-18,-1.121137e-16,5.66025e-17,39.36528,7.547e-17,7.510886e-17,0,0,0,0,0,0
2.822672,1.012762,-10.779825,1.891618e-12,0,0,1.891618e-12,0,0,-2.795012e-17,0,0,0,0,2.795012e-17,-2.795012e-17,2.795012e-17,0,3.726682e-17,3.227401e-17,0,0,0,0,0,0
2.869963,1.012762,-10.762785,1.891618e-12,0,0,1.891618e-12,0,2.220446e-16,3.045828e-17,0,0,0,0,2.261468e-16,-4.102232e-18,1.151245e-16,-52.670647,1.534994e-16,1.521504e-16,0,0,0,0,0,0
2.917253,1.012762,-10.742191,1.891618e-12,0,0,1.891618e-12,0,2.220446e-16,-2.473394e-17,0,0,0,0,2.247664e-16,-2.721793e-18,1.137441e-16,-38.720276,1.516588e-16,1.507597e-16,0,0,0,0,0,0
2.964544,1.012762,-10.717256,1.891618e-12,0,0,1.891618e-12,0,-2.220446e-16,-3.881069e-18,0,0,0,0,6.781562e-20,-2.221124e-16,1.110901e-16,43.998947,1.481202e-16,1.480976e-16,0,0,0,0,0,0
3.011834,1.012762,-10.688563,1.891618e-12,0,0,1.891618e-12,2.220446e-16,0,-4.892966e-18,0,0,0,0,2.221524e-16,-1.077689e-19,1.111301e-16,43.738251,1.481734e-16,1.481375e-16,0,0,0,0,0,0
3.059125,1.012762,-10.657905,1.891618e-12,0,0,1.891618e-12,0,-1.110223e-16,-4.286781e-20,0,0,0,0,1.655207e-23,-1.110223e-16,5.551117e-17,44.977879,7.401489e-17,7.401488e-17,0,0,0,0,0,0
3.106415,1.012762,-10.626632,1.891618e-12,0,0,1.891618e-12,-4.440892e-16,0,-1.25806e-17,0,0,0,0,3.561099e-19,-4.444453e-16,2.224007e-16,-43.378601,2.965343e-16,2.964157e-16,0,0,0,0,0,0
3.153705,1.012762,-10.594115,1.891618e-12,0,0,1.891618e-12,2.220446e-16,2.220446e-16,-3.698658e-17,0,0,0,0,2.590312e-16,1.85058e-16,3.698658e-17,0,4.931544e-17,1.540676e-16,0,0,0,0,0,0
3.200996,1.012762,-10.55755,1.891618e-12,0,0,1.891618e-12,0,0,1.380879e-17,0,0,0,0,1.380879e-17,-1.380879e-17,1.380879e-17,90,1.841173e-17,1.594502e-17,0,0,0,0,0,0
3.248286,1.012762,-10.512302,1.891618e-12,0,0,1.891618e-12,2.220446e-16,-2.220446e-16,-7.204955e-18,0,0,0,0,2.221615e-16,-2.221615e-16,2.221615e-16,44.070751,2.962153e-16,2.5653e-16,0,0,0,0,0,0
3.295577,1.012762,-10.45367,1.891618e-12,0,0,1.891618e-12,0,2.220446e-16,-1.490708e-17,0,0,0,0,2.230409e-16,-9.963235e-19,1.120186e-16,-41.176289,1.493582e-16,1.490272e-16,0,0,0,0,0,0
3.342867,1.012762,-10.3984,1.891618e-12,0,0,1.891618e-12,-2.220446e-16,-1.110223e-16,4.352881e-17,0,0,0,0,-9.599095e-17,-2.37076e-16,7.054251e-17,-64.050804,9.405668e-17,1.376987e-16,0,0,0,0,0,0
1.451249,0.965471,-10.101232,1.891618e-12,0,0,1.891618e-12,6.661338e-16,0,-7.105387e-17,0,0,0,0,6.736285e-16,-7.494712e-18,3.405616e-16,38.978745,4.540821e-16,4.516047e-16,0,0,0,0,0,0
1.49854,0.965471,-10.183626,1.891618e-12,0,0,1.891618e-12,0,0,-7.021691e-17,0,0,0,0,7.021691e-17,-7.021691e-17,7.021691e-17,0,9.362255e-17,8.10795e-17,0,0,0,0,0,0
1.54583,0.965471,-10.279995,1.891618e-12,0,0,1.891618e-12,-1.110223e-16,-1.110223e-16,3.844315e-17,0,0,0,0,-7.257915e-17,-1.494655e-16,3.844315e-17,90,5.125754e-17,8.630586e-17,0,0,0,0,0,0
1.593121,0.965471,-10.358059,1.891618e-12,0,0,1.891618e-12,-3.330669e-16,2.220446e-16,2.196981e-17,0,0,0,0,2.229128e-16,-3.339351e-16,2.784239e-16,-47.262894,3.712319e-16,3.236192e-16,0,0,0,0,0,0
1.640411,0.965471,-10.420402,1.891618e-12,0,0,1.891618e-12,2.220446e-16,-1.110223e-16,4.810042e-17,0,0,0,0,2.28852e-16,-1.178297e-16,1.733408e-16,53.055241,2.311211e-16,2.035492e-16,0,0,0,0,0,0
1.687701,0.965471,-10.474214,1.891618e-12,0,0,1.891618e-12,0,2.220446e-16,8.609162e-18,0,0,0,0,2.223779e-16,-3.33296e-19,1.113556e-16,-47.217049,1.484741e-16,1.483632e-16,0,0,0,0,0,0
1.734992,0.965471,-10.52187,1.891618e-12,0,0,1.891618e-12,-2.220446e-16,0,1.553768e-17,0,0,0,0,1.081984e-18,-2.231266e-16,1.121043e-16,-48.983429,1.494724e-16,1.49113e-16,0,0,0,0,0,0
1.782282,0.965471,-10.564892,1.891618e-12,0,0,1.891618e-12,0,0,-1.05885e-17,0,0,0,0,1.05885e-17,-1.05885e-17,1.05885e-17,0,1.4118e-17,1.222655e-17,0,0,0,0,0,0
1.829573,0.965471,-10.603714,1.891618e-12,0,0,1.891618e-12,-2.220446e-16,0,-3.530108e-17,0,0,0,0,5.477131e-18,-2.275217e-16,1.164994e-16,-36.180607,1.553326e-16,1.535394e-16,0,0,0,0,0,0
1.876863,0.965471,-10.637333,1.891618e-12,0,0,1.891618e-12,0,4.440892e-16,-1.155133e-18,0,0,0,0,4.440922e-16,-3.004629e-21,2.220476e-16,-44.850967,2.960635e-16,2.960625e-16,0,0,0,0,0,0
1.924154,0.965471,-10.666519,1.891618e-12,0,0,1.891618e-12,-2.220446e-16,-1.110223e-16,-2.76756e-17,0,0,0,0,-1.045058e-16,-2.285611e-16,6.202763e-17,-31.750511,8.270351e-17,1.321206e-16,0,0,0,0,0,0
1.971444,0.965471,-10.693161,1.891618e-12,0,0,1.891618e-12,2.220446e-16,-1.110223e-16,4.75333e-17,0,0,0,0,2.286955e-16,-1.176732e-16,1.731843e-16,52.965115,2.309124e-16,2.033715e-16,0,0,0,0,0,0
2.018735,0.965471,-10.718829,1.891618e-12,0,0,1.891618e-12,-1.110223e-16,2.220446e-16,-4.247615e-17,0,0,0,0,2.273763e-16,-1.16354e-16,1.718651e-16,-37.845589,2.291535e-16,2.018738e-16,0,0,0,0,0,0
2.066025,0.965471,-10.745223,1.891618e-12,0,0,1.891618e-12,-1.110223e-16,4.440892e-16,8.964519e-18,0,0,0,0,4.442339e-16,-1.11167e-16,2.777005e-16,-45.92495,3.702673e-16,3.393366e-16,0,0,0,0,0,0
2.113316,0.965471,-10.76993,1.891618e-12,0,0,1.891618e-12,-1.110223e-16,-1.110223e-16,-4.865571e-17,0,0,0,0,-6.236659e-17,-1.59678e-16,4.865571e-17,0,6.487428e-17,9.292311e-17,0,0,0,0,0,0
2.160606,0.965471,-10.789046,1.891618e-12,0,0,1.891618e-12,2.220446e-16,2.220446e-16,3.176642e-17,0,0,0,0,2.53811e-16,1.902782e-16,3.176642e-17,90,4.235522e-17,1.525066e-16,0,0,0,0,0,0
2.207896,0.965471,-10.801743,1.891618e-12,0,0,1.891618e-12,0,-1.110223e-16,-6.146842e-17,0,0,0,0,2.731309e-17,-1.383354e-16,8.282424e-17,21.042345,1.104323e-16,1.025477e-16,0,0,0,0,0,0
2.255187,0.965471,-10.808049,1.891618e-12,0,0,1.891618e-12,0,2.220446e-16,-8.758924e-18,0,0,0,0,2.223896e-16,-3.449745e-19,1.113673e-16,-42.744545,1.484897e-16,1.483748e-16,0,0,0,0,0,0
2.302477,0.965471,-10.80966,1.891618e-12,0,0,1.891618e-12,2.220446e-16,0,-1.313153e-17,0,0,0,0,2.228185e-16,-7.738902e-19,1.117962e-16,41.627247,1.490616e-16,1.488043e-16,0,0,0,0,0,0
2.349768,0.965471,-10.810265,1.891618e-12,0,0,1.891618e-12,2.220446e-16,0,1.096159e-17,0,0,0,0,2.225844e-16,-5.398241e-19,1.115621e-16,47.819363,1.487495e-16,1.485699e-16,0,0,0,0,0,0
2.397058,0.965471,-10.811456,1.891618e-12,0,0,1.891618e-12,-1.110223e-16,-1.110223e-16,2.181249e-17,0,0,0,0,-8.920981e-17,-1.328348e-16,2.181249e-17,90,2.908332e-17,7.818299e-17,0,0,0,0,0,0
2.444349,0.965471,-10.815037,1.891618e-12,0,0,1.891618e-12,0,0,2.788229e-17,0,0,0,0,2.788229e-17,-2.788229e-17,2.788229e-17,90,3.717639e-17,3.21957e-17,0,0,0,0,0,0
2.491639,0.965471,-10.821026,1.891618e-12,0,0,1.891618e-12,2.220446e-16,-1.110223e-16,8.953983e-18,0,0,0,0,2.222851e-16,-1.112628e-16,1.66774e-16,46.538826,2.223653e-16,1.960977e-16,0,0,0,0,0,0
2.53893,0.965471,-10.826242,1.891618e-12,0,0,1.891618e-12,2.220446e-16,2.220446e-16,9.674457e-18,0,0,0,0,2.317191e-16,2.123702e-16,9.674457e-18,90,1.289928e-17,1.484507e-16,0,0,0,0,0,0
2.58622,0.965471,-10.827948,1.891618e-12,0,0,1.891618e-12,4.440892e-16,-1.110223e-16,-3.53286e-17,0,0,0,0,4.463286e-16,-1.132617e-16,2.797951e-16,41.373066,3.730602e-16,3.416231e-16,0,0,0,0,0,0
2.633511,0.965471,-10.824829,1.891618e-12,0,0,1.891618e-12,2.220446e-16,2.220446e-16,1.895303e-17,0,0,0,0,2.409976e-16,2.030916e-16,1.895303e-17,90,2.52707e-17,1.496388e-16,0,0,0,0,0,0
2.680801,0.965471,-10.81756,1.891618e-12,0,0,1.891618e-12,-1.110223e-16,0,-1.242045e-17,0,0,0,0,1.372551e-18,-1.123949e-16,5.68837e-17,-38.693985,7.584494e-17,7.539158e-17,0,0,0,0,0,0
2.728091,0.965471,-10.807967,1.891618e-12,0,0,1.891618e-12,-3.330669e-16,2.220446e-16,-3.300519e-17,0,0,0,0,2.240001e-16,-3.350224e-16,2.795113e-16,-41.609295,3.726817e-16,3.248665e-16,0,0,0,0,0,0
2.775382,0.965471,-10.796672,1.891618e-12,0,0,1.891618e-12,0,-1.110223e-16,7.728262e-18,0,0,0,0,5.353824e-19,-1.115577e-16,5.604654e-17,48.962887,7.472871e-17,7.455089e-17,0,0,0,0,0,0
2.822672,0.965471,-10.783495,1.891618e-12,0,0,1.891618e-12,0,0,-3.363623e-17,0,0,0,0,3.363623e-17,-3.363623e-17,3.363623e-17,0,4.48483e-17,3.883977e-17,0,0,0,0,0,0
2.869963,0.965471,-10.767237,1.891618e-12,0,0,1.891618e-12,0,0,1.748352e-17,0,0,0,0,1.748352e-17,-1.748352e-17,1.748352e-17,90,2.331136e-17,2.018823e-17,0,0,0,0,0,0
2.917253,0.965471,-10.746786,1.891618e-12,0,0,1.891618e-12,2.220446e-16,4.440892e-16,-2.076226e-17,0,0,0,0,4.460139e-16,2.201199e-16,1.12947e-16,-39.703739,1.50596e-16,2.575134e-16,0,0,0,0,0,0
2.964544,0.965471,-10.722007,1.891618e-12,0,0,1.891618e-12,2.220446e-16,2.220446e-16,5.977047e-17,0,0,0,0,2.818151e-16,1.622741e-16,5.977047e-17,90,7.969396e-17,1.633283e-16,0,0,0,0,0,0
3.011834,0.965471,-10.693612,1.891618e-12,0,0,1.891618e-12,2.220446e-16,0,-3.513642e-17,0,0,0,0,2.274719e-16,-5.427341e-18,1.164496e-16,36.219212,1.552662e-16,1.534891e-16,0,0,0,0,0,0
3.059125,0.965471,-10.663184,1.891618e-12,0,0,1.891618e-12,-4.440892e-16,2.220446e-16,3.875829e-17,0,0,0,0,2.242921e-16,-4.463368e-16,3.353144e-16,-48.318768,4.470859e-16,3.941986e-16,0,0,0,0,0,0
3.106415,0.965471,-10.631674,1.891618e-12,0,0,1.891618e-12,0,0,9.459092e-18,0,0,0,0,9.459092e-18,-9.459092e-18,9.459092e-18,90,1.261212e-17,1.092242e-17,0,0,0,0,0,0
3.153705,0.965471,-10.598216,1.891618e-12,0,0,1.891618e-12,2.220446e-16,0,4.042737e-17,0,0,0,0,2.291761e-16,-7.131514e-18,1.181538e-16,55.00423,1.575384e-16,1.552159e-16,0,0,0,0,0,0
3.200996,0.965471,-10.560365,1.891618e-12,0,0,1.891618e-12,0,-1.110223e-16,-1.256155e-17,0,0,0,0,1.403525e-18,-1.124258e-16,5.691468e-17,38.62468,7.588624e-17,7.542275e-17,0,0,0,0,0,0
3.248286,0.965471,-10.514124,1.891618e-12,0,0,1.891618e-12,4.440892e-16,2.220446e-16,-2.786231e-17,0,0,0,0,4.47532e-16,2.186018e-16,1.144651e-16,37.955963,1.526201e-16,2.584057e-16,0,0,0,0,0,0
3.295577,0.965471,-10.454187,1.891618e-12,0,0,1.891618e-12,2.220446e-16,-2.220446e-16,4.700095e-17,0,0,0,0,2.269645e-16,-2.269645e-16,2.269645e-16,50.975792,3.026194e-16,2.620761e-16,0,0,0,0,0,0
3.342867,0.965471,-10.398379,1.891618e-12,0,0,1.891618e-12,-2.220446e-16,2.220446e-16,-4.200229e-17,0,0,0,0,2.259823e-16,-2.259823e-16,2.259823e-16,-39.644203,3.013097e-16,2.609419e-16,0,0,0,0,0,0
1.451249,0.918181,-10.097459,1.891618e-12,0,0,1.891618e-12,-3.330669e-16,0,-5.003271e-17,0,0,0,0,7.353474e-18,-3.404204e-16,1.738869e-16,-36.638908,2.318492e-16,2.294373e-16,0,0,0,0,0,0
1.49854,0.918181,-10.181544,1.891618e-12,0,0,1.891618e-12,0,-1.110223e-16,2.472902e-17,0,0,0,0,5.259008e-18,-1.162813e-16,6.077016e-17,57.00597,8.102688e-17,7.9332e-17,0,0,0,0,0,0
1.54583,0.918181,-10.279674,1.891618e-12,0,0,1.891618e-12,-1.110223e-16,-1.110223e-16,1.555531e-17,0,0,0,0,-9.546699e-17,-1.265776e-16,1.555531e-17,90,2.074042e-17,7.616314e-17,0,0,0,0,0,0
1.593121,0.918181,-10.358986,1.891618e-12,0,0,1.891618e-12,0,2.220446e-16,1.736168e-18,0,0,0,0,2.220582e-16,-1.357428e-20,1.110359e-16,-45.44796,1.480478e-16,1.480433e-16,0,0,0,0,0,0
1.640411,0.918181,-10.422784,1.891618e-12,0,0,1.891618e-12,-1.110223e-16,-1.110223e-16,1.052797e-18,0,0,0,0,-1.099695e-16,-1.120751e-16,1.052797e-18,90,1.403729e-18,7.402485e-17,0,0,0,0,0,0
1.687701,0.918181,-10.47789,1.891618e-12,0,0,1.891618e-12,0,2.220446e-16,-7.963658e-18,0,0,0,0,2.223298e-16,-2.852512e-19,1.113076e-16,-42.948593,1.484101e-16,1.483151e-16,0,0,0,0,0,0
1.734992,0.918181,-10.526313,1.891618e-12,0,0,1.891618e-12,2.220446e-16,2.220446e-16,7.367978e-18,0,0,0,0,2.294126e-16,2.146766e-16,7.367978e-18,90,9.823971e-18,1.48274e-16,0,0,0,0,0,0
1.782282,0.918181,-10.56977,1.891618e-12,0,0,1.891618e-12,0,-1.110223e-16,-5.087187e-17,0,0,0,0,1.97845e-17,-1.308068e-16,7.529565e-17,23.748522,1.003942e-16,9.449231e-17,0,0,0,0,0,0
1.829573,0.918181,-10.608811,1.891618e-12,0,0,1.891618e-12,0,2.220446e-16,8.732614e-18,0,0,0,0,2.223875e-16,-3.429084e-19,1.113652e-16,-47.248711,1.48487e-16,1.483728e-16,0,0,0,0,0,0
1.876863,0.918181,-10.642172,1.891618e-12,0,0,1.891618e-12,0,0,4.653684e-17,0,0,0,0,4.653684e-17,-4.653684e-17,4.653684e-17,90,6.204911e-17,5.373611e-17,0,0,0,0,0,0
1.924154,0.918181,-10.670515,1.891618e-12,0,0,1.891618e-12,2.220446e-16,0,-7.369652e-18,0,0,0,0,2.222889e-16,-2.443296e-19,1.112666e-16,43.101143,1.483555e-16,1.482741e-16,0,0,0,0,0,0
1.971444,0.918181,-10.696572,1.891618e-12,0,0,1.891618e-12,2.220446e-16,-1.110223e-16,2.656234e-17,0,0,0,0,2.241497e-16,-1.131274e-16,1.686385e-16,49.531216,2.248514e-16,1.982124e-16,0,0,0,0,0,0
2.018735,0.918181,-10.722417,1.891618e-12,0,0,1.891618e-12,0,0,1.013128e-17,0,0,0,0,1.013128e-17,-1.013128e-17,1.013128e-17,90,1.350838e-17,1.16986e-17,0,0,0,0,0,0
2.066025,0.918181,-10.749795,1.891618e-12,0,0,1.891618e-12,-1.110223e-16,0,-1.733816e-17,0,0,0,0,2.644671e-18,-1.13667e-16,5.815582e-17,-36.327255,7.75411e-17,7.667475e-17,0,0,0,0,0,0
2.113316,0.918181,-10.775885,1.891618e-12,0,0,1.891618e-12,0,0,3.722731e-17,0,0,0,0,3.722731e-17,-3.722731e-17,3.722731e-17,90,4.963641e-17,4.298639e-17,0,0,0,0,0,0
2.160606,0.918181,-10.795768,1.891618e-12,0,0,1.891618e-12,2.220446e-16,2.220446e-16,5.951716e-18,0,0,0,0,2.279963e-16,2.160929e-16,5.951716e-18,90,7.935622e-18,1.481892e-16,0,0,0,0,0,0
2.207896,0.918181,-10.808451,1.891618e-12,0,0,1.891618e-12,2.220446e-16,-1.110223e-16,1.153963e-17,0,0,0,0,2.224439e-16,-1.114216e-16,1.669328e-16,46.981934,2.22577e-16,1.962778e-16,0,0,0,0,0,0
2.255187,0.918181,-10.81436,1.891618e-12,0,0,1.891618e-12,-1.110223e-16,-1.110223e-16,2.136929e-17,0,0,0,0,-8.965302e-17,-1.323916e-16,2.136929e-17,90,2.849238e-17,7.801963e-17,0,0,0,0,0,0
2.302477,0.918181,-10.815572,1.891618e-12,0,0,1.891618e-12,2.220446e-16,-4.440892e-16,3.23957e-17,0,0,0,0,2.236164e-16,-4.45661e-16,3.346387e-16,47.777695,4.461849e-16,3.934322e-16,0,0,0,0,0,0
2.349768,0.918181,-10.81569,1.891618e-12,0,0,1.891618e-12,2.220446e-16,2.220446e-16,3.20063e-17,0,0,0,0,2.540509e-16,1.900383e-16,3.20063e-17,90,4.267507e-17,1.525735e-16,0,0,0,0,0,0
2.397058,0.918181,-10.816438,1.891618e-12,0,0,1.891618e-12,0,2.220446e-16,-8.780828e-19,0,0,0,0,2.220481e-16,-3.472354e-21,1.110258e-16,-44.773426,1.480344e-16,1.480332e-16,0,0,0,0,0,0
2.444349,0.918181,-10.819424,1.891618e-12,0,0,1.891618e-12,0,2.220446e-16,2.340359e-18,0,0,0,0,2.220693e-16,-2.466473e-20,1.11047e-16,-45.603809,1.480626e-16,1.480544e-16,0,0,0,0,0,0
2.491639,0.918181,-10.824401,1.891618e-12,0,0,1.891618e-12,-1.110223e-16,2.220446e-16,2.585737e-19,0,0,0,0,2.220448e-16,-1.110225e-16,1.665337e-16,-45.044479,2.220449e-16,1.958252e-16,0,0,0,0,0,0
2.53893,0.918181,-10.828101,1.891618e-12,0,0,1.891618e-12,-2.220446e-16,0,2.757964e-17,0,0,0,0,3.374324e-18,-2.254189e-16,1.143966e-16,-51.97538,1.525288e-16,1.514166e-16,0,0,0,0,0,0
2.58622,0.918181,-10.827623,1.891618e-12,0,0,1.891618e-12,-2.220446e-16,2.220446e-16,-1.823154e-17,0,0,0,0,2.227918e-16,-2.227918e-16,2.227918e-16,-42.653057,2.970558e-16,2.572578e-16,0,0,0,0,0,0
2.633511,0.918181,-10.822361,1.891618e-12,0,0,1.891618e-12,0,0,9.24224e-18,0,0,0,0,9.24224e-18,-9.24224e-18,9.24224e-18,90,1.232299e-17,1.067202e-17,0,0,0,0,0,0
2.680801,0.918181,-10.814163,1.891618e-12,0,0,1.891618e-12,2.220446e-16,-4.440892e-16,4.411776e-17,0,0,0,0,2.249538e-16,-4.469984e-16,3.359761e-16,48.772713,4.479681e-16,3.949491e-16,0,0,0,0,0,0
2.728091,0.918181,-10.8051,1.891618e-12,0,0,1.891618e-12,0,2.220446e-16,-3.676698e-17,0,0,0,0,2.279743e-16,-5.929665e-18,1.16952e-16,-35.838402,1.55936e-16,1.539975e-16,0,0,0,0,0,0
2.775382,0.918181,-10.795424,1.891618e-12,0,0,1.891618e-12,0,-4.440892e-16,4.312686e-17,0,0,0,0,4.14941e-18,-4.482386e-16,2.26194e-16,50.495743,3.01592e-16,3.002184e-16,0,0,0,0,0,0
2.822672,0.918181,-10.784216,1.891618e-12,0,0,1.891618e-12,-1.110223e-16,0,-1.297919e-18,0,0,0,0,1.517139e-20,-1.110375e-16,5.552633e-17,-44.330299,7.40351e-17,7.403004e-17,0,0,0,0,0,0
2.869963,0.918181,-10.769231,1.891618e-12,0,0,1.891618e-12,-1.110223e-16,-1.110223e-16,-2.212908e-17,0,0,0,0,-8.889322e-17,-1.331514e-16,2.212908e-17,0,2.950544e-17,7.830153e-17,0,0,0,0,0,0
2.917253,0.918181,-10.749671,1.891618e-12,0,0,1.891618e-12,-1.110223e-16,0,4.039258e-17,0,0,0,0,1.31405e-17,-1.241628e-16,6.865165e-17,-63.020718,9.153553e-17,8.748494e-17,0,0,0,0,0,0
2.964544,0.918181,-10.725586,1.891618e-12,0,0,1.891618e-12,2.220446e-16,0,-4.240053e-17,0,0,0,0,2.298657e-16,-7.82111e-18,1.188434e-16,34.54882,1.584579e-16,1.559163e-16,0,0,0,0,0,0
3.011834,0.918181,-10.698118,1.891618e-12,0,0,1.891618e-12,2.220446e-16,-2.220446e-16,4.157789e-17,0,0,0,0,2.259038e-16,-2.259038e-16,2.259038e-16,50.302914,3.012051e-16,2.608512e-16,0,0,0,0,0,0
3.059125,0.918181,-10.66849,1.891618e-12,0,0,1.891618e-12,-3.330669e-16,2.220446e-16,6.304849e-17,0,0,0,0,2.291155e-16,-3.401378e-16,2.846266e-16,-51.398956,3.795022e-16,3.307355e-16,0,0,0,0,0,0
3.106415,0.918181,-10.637153,1.891618e-12,0,0,1.891618e-12,-2.220446e-16,-1.110223e-16,-5.285027e-18,0,0,0,0,-1.107713e-16,-2.222956e-16,5.576217e-17,-42.280727,7.434956e-17,1.283427e-16,0,0,0,0,0,0
3.153705,0.918181,-10.603115,1.891618e-12,0,0,1.891618e-12,-2.220446e-16,0,5.055339e-18,0,0,0,0,1.150364e-19,-2.221596e-16,1.111373e-16,-46.303566,1.481831e-16,1.481448e-16,0,0,0,0,0,0
3.200996,0.918181,-10.563798,1.891618e-12,0,0,1.891618e-12,0,-1.110223e-16,3.266207e-17,0,0,0,0,8.896136e-18,-1.199184e-16,6.440729e-17,60.236012,8.587638e-17,8.306994e-17,0,0,0,0,0,0
3.248286,0.918181,-10.51529,1.891618e-12,0,0,1.891618e-12,0,-1.110223e-16,3.48222e-17,0,0,0,0,1.001803e-17,-1.210403e-16,6.552918e-17,61.050045,8.737224e-17,8.423172e-17,0,0,0,0,0,0
3.295577,0.918181,-10.45544,1.891618e-12,0,0,1.891618e-12,-1.110223e-16,2.220446e-16,-4.785772e-17,0,0,0,0,2.287848e-16,-1.177625e-16,1.732736e-16,-36.983307,2.310315e-16,2.034729e-16,0,0,0,0,0,0
3.342867,0.918181,-10.397149,1.891618e-12,0,0,1.891618e-12,-2.220446e-16,-1.110223e-16,-6.720676e-17,0,0,0,0,-7.936559e-17,-2.537013e-16,8.716786e-17,-19.777941,1.162238e-16,1.498564e-16,0,0,0,0,0,0
1.451249,0.87089,-10.095387,1.891618e-12,0,0,1.891618e-12,-2.220446e-16,0,-1.663779e-17,0,0,0,0,1.239747e-18,-2.232843e-16,1.122621e-16,-40.738541,1.496827e-16,1.492712e-16,0,0,0,0,0,0
1.49854,0.87089,-10.181941,1.891618e-12,0,0,1.891618e-12,-1.110223e-16,-1.110223e-16,4.45364e-17,0,0,0,0,-6.64859e-17,-1.555587e-16,4.45364e-17,90,5.938187e-17,9.012689e-17,0,0,0,0,0,0
1.54583,0.87089,-10.282318,1.891618e-12,0,0,1.891618e-12,-1.110223e-16,-1.110223e-16,-2.170273e-17,0,0,0,0,-8.931958e-17,-1.32725e-16,2.170273e-17,0,2.893697e-17,7.814226e-17,0,0,0,0,0,0
1.593121,0.87089,-10.362625,1.891618e-12,0,0,1.891618e-12,2.220446e-16,0,-1.450502e-17,0,0,0,0,2.229881e-16,-9.435279e-19,1.119658e-16,41.278244,1.492878e-16,1.489743e-16,0,0,0,0,0,0
1.640411,0.87089,-10.427842,1.891618e-12,0,0,1.891618e-12,2.220446e-16,2.220446e-16,4.042498e-17,0,0,0,0,2.624696e-16,1.816196e-16,4.042498e-17,90,5.389997e-17,1.55215e-16,0,0,0,0,0,0
1.687701,0.87089,-10.483795,1.891618e-12,0,0,1.891618e-12,-2.220446e-16,0,-8.158884e-18,0,0,0,0,2.993892e-19,-2.22344e-16,1.113217e-16,-42.898483,1.484289e-16,1.483292e-16,0,0,0,0,0,0
1.734992,0.87089,-10.532608,1.891618e-12,0,0,1.891618e-12,-2.220446e-16,0,-3.860389e-17,0,0,0,0,6.52008e-18,-2.285647e-16,1.175424e-16,-35.413387,1.567232e-16,1.545956e-16,0,0,0,0,0,0
1.782282,0.87089,-10.576531,1.891618e-12,0,0,1.891618e-12,0,0,-2.757075e-17,0,0,0,0,2.757075e-17,-2.757075e-17,2.757075e-17,0,3.6761e-17,3.183596e-17,0,0,0,0,0,0
1.829573,0.87089,-10.616239,1.891618e-12,0,0,1.891618e-12,-4.440892e-16,2.220446e-16,2.507301e-17,0,0,0,0,2.22987e-16,-4.450316e-16,3.340093e-16,-47.152531,4.453457e-16,3.927185e-16,0,0,0,0,0,0
1.876863,0.87089,-10.649774,1.891618e-12,0,0,1.891618e-12,0,0,-3.360539e-17,0,0,0,0,3.360539e-17,-3.360539e-17,3.360539e-17,0,4.480719e-17,3.880417e-17,0,0,0,0,0,0
1.924154,0.87089,-10.677394,1.891618e-12,0,0,1.891618e-12,2.220446e-16,-1.110223e-16,2.362692e-17,0,0,0,0,2.237123e-16,-1.1269e-16,1.682011e-16,49.037472,2.242682e-16,1.977162e-16,0,0,0,0,0,0
1.971444,0.87089,-10.702479,1.891618e-12,0,0,1.891618e-12,2.220446e-16,2.220446e-16,1.22865e-18,0,0,0,0,2.232733e-16,2.20816e-16,1.22865e-18,90,1.6382e-18,1.480365e-16,0,0,0,0,0,0
2.018735,0.87089,-10.727482,1.891618e-12,0,0,1.891618e-12,-1.110223e-16,-1.110223e-16,8.917519e-18,0,0,0,0,-1.021048e-16,-1.199398e-16,8.917519e-18,90,1.189003e-17,7.472771e-17,0,0,0,0,0,0
2.066025,0.87089,-10.754396,1.891618e-12,0,0,1.891618e-12,2.220446e-16,2.220446e-16,-8.263004e-18,0,0,0,0,2.303076e-16,2.137816e-16,8.263004e-18,0,1.101734e-17,1.483369e-16,0,0,0,0,0,0
2.113316,0.87089,-10.780258,1.891618e-12,0,0,1.891618e-12,2.220446e-16,0,-2.469846e-17,0,0,0,0,2.247587e-16,-2.714085e-18,1.137364e-16,38.728996,1.516485e-16,1.50752e-16,0,0,0,0,0,0
2.160606,0.87089,-10.799653,1.891618e-12,0,0,1.891618e-12,2.220446e-16,-4.440892e-16,-1.674095e-17,0,0,0,0,2.224651e-16,-4.445097e-16,3.334874e-16,43.561283,4.446498e-16,3.921267e-16,0,0,0,0,0,0
2.207896,0.87089,-10.811642,1.891618e-12,0,0,1.891618e-12,0,2.220446e-16,-2.785715e-17,0,0,0,0,2.254862e-16,-3.441545e-18,1.144639e-16,-37.957214,1.526185e-16,1.514843e-16,0,0,0,0,0,0
2.255187,0.87089,-10.817462,1.891618e-12,0,0,1.891618e-12,-1.110223e-16,2.220446e-16,-2.365018e-17,0,0,0,0,2.237156e-16,-1.126933e-16,1.682044e-16,-40.958607,2.242725e-16,1.977199e-16,0,0,0,0,0,0
2.302477,0.87089,-10.819181,1.891618e-12,0,0,1.891618e-12,-1.110223e-16,2.220446e-16,-3.008784e-17,0,0,0,0,2.247408e-16,-1.137185e-16,1.692296e-16,-39.879383,2.256395e-16,1.98883e-16,0,0,0,0,0,0
2.349768,0.87089,-10.820033,1.891618e-12,0,0,1.891618e-12,-2.220446e-16,0,7.443262e-18,0,0,0,0,2.492294e-19,-2.222938e-16,1.112715e-16,-46.91777,1.48362e-16,1.48279e-16,0,0,0,0,0,0
2.397058,0.87089,-10.821411,1.891618e-12,0,0,1.891618e-12,-2.220446e-16,4.440892e-16,-5.669652e-18,0,0,0,0,4.441374e-16,-2.220929e-16,3.331152e-16,-44.512386,4.441535e-16,3.917046e-16,0,0,0,0,0,0
2.444349,0.87089,-10.824235,1.891618e-12,0,0,1.891618e-12,-1.110223e-16,0,-5.583599e-17,0,0,0,0,2.322351e-17,-1.342458e-16,7.873466e-17,-22.416422,1.049795e-16,9.815844e-17,0,0,0,0,0,0
2.491639,0.87089,-10.828071,1.891618e-12,0,0,1.891618e-12,-2.220446e-16,0,4.22606e-17,0,0,0,0,7.771259e-18,-2.298159e-16,1.187936e-16,-55.419655,1.583914e-16,1.558656e-16,0,0,0,0,0,0
2.53893,0.87089,-10.829876,1.891618e-12,0,0,1.891618e-12,-4.440892e-16,-1.110223e-16,1.398726e-17,0,0,0,0,-1.104359e-16,-4.446756e-16,1.671198e-16,-47.400524,2.228264e-16,2.673527e-16,0,0,0,0,0,0
2.58622,0.87089,-10.826785,1.891618e-12,0,0,1.891618e-12,2.220446e-16,2.220446e-16,1.325382e-17,0,0,0,0,2.352984e-16,2.087908e-16,1.325382e-17,90,1.767175e-17,1.488188e-16,0,0,0,0,0,0
2.633511,0.87089,-10.819029,1.891618e-12,0,0,1.891618e-12,2.220446e-16,2.220446e-16,1.9017e-17,0,0,0,0,2.410616e-16,2.030276e-16,1.9017e-17,90,2.5356e-17,1.496496e-16,0,0,0,0,0,0
2.680801,0.87089,-10.80932,1.891618e-12,0,0,1.891618e-12,0,2.220446e-16,3.933895e-17,0,0,0,0,2.288081e-16,-6.763539e-18,1.177858e-16,-54.755478,1.570478e-16,1.548425e-16,0,0,0,0,0,0
2.728091,0.87089,-10.800199,1.891618e-12,0,0,1.891618e-12,2.220446e-16,2.220446e-16,1.390091e-17,0,0,0,0,2.359455e-16,2.081437e-16,1.390091e-17,90,1.853454e-17,1.488974e-16,0,0,0,0,0,0
2.775382,0.87089,-10.792021,1.891618e-12,0,0,1.891618e-12,0,-1.110223e-16,1.814605e-17,0,0,0,0,2.890621e-18,-1.139129e-16,5.840177e-17,54.051029,7.786903e-17,7.692359e-17,0,0,0,0,0,0
2.822672,0.87089,-10.78262,1.891618e-12,0,0,1.891618e-12,0,-2.220446e-16,1.679886e-17,0,0,0,0,1.263731e-18,-2.233083e-16,1.12286e-16,49.302097,1.497147e-16,1.492952e-16,0,0,0,0,0,0
2.869963,0.87089,-10.768884,1.891618e-12,0,0,1.891618e-12,0,-2.220446e-16,7.649514e-17,0,0,0,0,2.38015e-17,-2.458461e-16,1.348238e-16,62.283558,1.797651e-16,1.723798e-16,0,0,0,0,0,0
2.917253,0.87089,-10.750223,1.891618e-12,0,0,1.891618e-12,2.220446e-16,0,8.643045e-18,0,0,0,0,2.223805e-16,-3.359207e-19,1.113582e-16,47.225739,1.484776e-16,1.483658e-16,0,0,0,0,0,0
2.964544,0.87089,-10.727024,1.891618e-12,0,0,1.891618e-12,-4.440892e-16,-1.110223e-16,-4.454996e-17,0,0,0,0,-1.051664e-16,-4.499451e-16,1.723893e-16,-37.511646,2.298525e-16,2.717772e-16,0,0,0,0,0,0
3.011834,0.87089,-10.700754,1.891618e-12,0,0,1.891618e-12,-2.220446e-16,0,7.526404e-18,0,0,0,0,2.548219e-19,-2.222994e-16,1.112771e-16,-46.939125,1.483695e-16,1.482846e-16,0,0,0,0,0,0
3.059125,0.87089,-10.672149,1.891618e-12,0,0,1.891618e-12,2.220446e-16,0,-3.004773e-17,0,0,0,0,2.260389e-16,-3.994296e-18,1.150166e-16,37.427967,1.533555e-16,1.520415e-16,0,0,0,0,0,0
3.106415,0.87089,-10.641164,1.891618e-12,0,0,1.891618e-12,0,-2.220446e-16,1.562076e-18,0,0,0,0,1.09886e-20,-2.220556e-16,1.110333e-16,45.403046,1.480444e-16,1.480407e-16,0,0,0,0,0,0
3.153705,0.87089,-10.606861,1.891618e-12,0,0,1.891618e-12,4.440892e-16,0,6.836947e-18,0,0,0,0,4.441945e-16,-1.052328e-19,2.221498e-16,45.881813,2.961998e-16,2.961647e-16,0,0,0,0,0,0
3.200996,0.87089,-10.566812,1.891618e-12,0,0,1.891618e-12,-2.220446e-16,2.220446e-16,-3.804109e-18,0,0,0,0,2.220772e-16,-2.220772e-16,2.220772e-16,-44.509247,2.961029e-16,2.564327e-16,0,0,0,0,0,0
3.248286,0.87089,-10.51767,1.891618e-12,0,0,1.891618e-12,-2.220446e-16,0,-4.162927e-17,0,0,0,0,7.548133e-18,-2.295927e-16,1.185704e-16,-34.722904,1.580939e-16,1.556389e-16,0,0,0,0,0,0
3.295577,0.87089,-10.458236,1.891618e-12,0,0,1.891618e-12,2.220446e-16,-1.110223e-16,-8.059224e-19,0,0,0,0,2.220466e-16,-1.110242e-16,1.665354e-16,44.861362,2.220472e-16,1.958271e-16,0,0,0,0,0,0
3.342867,0.87089,-10.38497,1.891618e-12,0,0,1.891618e-12,4.440892e-16,0,-2.048767e-18,0,0,0,0,4.440987e-16,-9.451607e-21,2.220541e-16,44.73568,2.960721e-16,2.960689e-16,0,0,0,0,0,0
3.390158,0.87089,-10.321408,1.891618e-12,0,0,1.891618e-12,2.220446e-16,2.220446e-16,1.044839e-16,0,0,0,0,3.265285e-16,1.175607e-16,1.044839e-16,90,1.393119e-16,1.909677e-16,0,0,0,0,0,0
1.451249,0.8236,-10.097004,1.891618e-12,0,0,1.891618e-12,-3.330669e-16,-1.110223e-16,1.885473e-17,0,0,0,0,-1.094327e-16,-3.346566e-16,1.12612e-16,-49.819241,1.501493e-16,1.970315e-16,0,0,0,0,0,0
1.49854,0.8236,-10.186707,1.891618e-12,0,0,1.891618e-12,0,2.220446e-16,-2.292215e-17,0,0,0,0,2.243862e-16,-2.341609e-18,1.133639e-16,-39.167191,1.511519e-16,1.503774e-16,0,0,0,0,0,0
1.54583,0.8236,-10.289019,1.891618e-12,0,0,1.891618e-12,2.220446e-16,2.220446e-16,4.00742e-17,0,0,0,0,2.621188e-16,1.819704e-16,4.00742e-17,90,5.343227e-17,1.550937e-16,0,0,0,0,0,0
1.593121,0.8236,-10.369546,1.891618e-12,0,0,1.891618e-12,-1.110223e-16,-2.220446e-16,-6.658533e-18,0,0,0,0,-1.106244e-16,-2.224425e-16,5.590907e-17,41.58004,7.454542e-17,1.284279e-16,0,0,0,0,0,0
1.640411,0.8236,-10.434695,1.891618e-12,0,0,1.891618e-12,0,-1.110223e-16,8.227329e-18,0,0,0,0,6.06376e-19,-1.116287e-16,5.611753e-17,49.215229,7.482337e-17,7.462207e-17,0,0,0,0,0,0
1.687701,0.8236,-10.490173,1.891618e-12,0,0,1.891618e-12,0,2.220446e-16,-1.144887e-17,0,0,0,0,2.226334e-16,-5.887551e-19,1.116111e-16,-42.056171,1.488147e-16,1.486189e-16,0,0,0,0,0,0
1.734992,0.8236,-10.538983,1.891618e-12,0,0,1.891618e-12,-2.220446e-16,0,1.314023e-17,0,0,0,0,7.749123e-19,-2.228195e-16,1.117972e-16,-48.374966,1.490629e-16,1.488053e-16,0,0,0,0,0,0
1.782282,0.8236,-10.583551,1.891618e-12,0,0,1.891618e-12,-2.220446e-16,2.220446e-16,1.136095e-17,0,0,0,0,2.223351e-16,-2.223351e-16,2.223351e-16,-46.464497,2.964467e-16,2.567304e-16,0,0,0,0,0,0
1.829573,0.8236,-10.623884,1.891618e-12,0,0,1.891618e-12,2.220446e-16,0,5.090089e-18,0,0,0,0,2.221612e-16,-1.166226e-19,1.111389e-16,46.312515,1.481852e-16,1.481464e-16,0,0,0,0,0,0
1.876863,0.8236,-10.657427,1.891618e-12,0,0,1.891618e-12,0,2.220446e-16,4.236087e-17,0,0,0,0,2.298516e-16,-7.806966e-18,1.188293e-16,-55.442245,1.58439e-16,1.559019e-16,0,0,0,0,0,0
1.924154,0.8236,-10.684281,1.891618e-12,0,0,1.891618e-12,4.440892e-16,0,-4.711279e-18,0,0,0,0,4.441392e-16,-4.997566e-20,2.220946e-16,44.39225,2.961261e-16,2.961095e-16,0,0,0,0,0,0
1.971444,0.8236,-10.708064,1.891618e-12,0,0,1.891618e-12,-1.110223e-16,0,7.786583e-18,0,0,0,0,5.434541e-19,-1.115658e-16,5.60546e-17,-48.992409,7.473947e-17,7.455898e-17,0,0,0,0,0,0
2.018735,0.8236,-10.731895,1.891618e-12,0,0,1.891618e-12,0,2.220446e-16,1.183872e-17,0,0,0,0,2.22674e-16,-6.294196e-19,1.116517e-16,-48.043331,1.48869e-16,1.486596e-16,0,0,0,0,0,0
2.066025,0.8236,-10.757411,1.891618e-12,0,0,1.891618e-12,-1.110223e-16,-2.220446e-16,-2.273267e-17,0,0,0,0,-1.065479e-16,-2.26519e-16,5.998552e-17,33.865074,7.998069e-17,1.308573e-16,0,0,0,0,0,0
2.113316,0.8236,-10.781704,1.891618e-12,0,0,1.891618e-12,0,2.220446e-16,-6.782982e-18,0,0,0,0,2.222516e-16,-2.070124e-19,1.112293e-16,-43.251911,1.483058e-16,1.482368e-16,0,0,0,0,0,0
2.160606,0.8236,-10.799849,1.891618e-12,0,0,1.891618e-12,2.220446e-16,2.220446e-16,-2.701416e-17,0,0,0,0,2.490588e-16,1.950304e-16,2.701416e-17,0,3.601888e-17,1.512806e-16,0,0,0,0,0,0
2.207896,0.8236,-10.811229,1.891618e-12,0,0,1.891618e-12,0,-2.220446e-16,-2.575316e-17,0,0,0,0,2.947768e-18,-2.249924e-16,1.139701e-16,38.470207,1.519601e-16,1.509871e-16,0,0,0,0,0,0
2.255187,0.8236,-10.817788,1.891618e-12,0,0,1.891618e-12,0,2.220446e-16,2.648625e-17,0,0,0,0,2.251603e-16,-3.115653e-18,1.14138e-16,-51.709034,1.521839e-16,1.511561e-16,0,0,0,0,0,0
2.302477,0.8236,-10.821325,1.891618e-12,0,0,1.891618e-12,-1.110223e-16,2.220446e-16,7.199394e-17,0,0,0,0,2.369403e-16,-1.259179e-16,1.814291e-16,-56.689636,2.419055e-16,2.127398e-16,0,0,0,0,0,0
2.349768,0.8236,-10.824237,1.891618e-12,0,0,1.891618e-12,-1.110223e-16,2.220446e-16,-2.03387e-17,0,0,0,0,2.23282e-16,-1.122597e-16,1.677708e-16,-41.518478,2.236944e-16,1.972282e-16,0,0,0,0,0,0
2.397058,0.8236,-10.827203,1.891618e-12,0,0,1.891618e-12,0,-1.110223e-16,-1.587268e-17,0,0,0,0,2.224712e-18,-1.13247e-16,5.773586e-17,37.021408,7.698115e-17,7.62504e-17,0,0,0,0,0,0
2.444349,0.8236,-10.830437,1.891618e-12,0,0,1.891618e-12,-2.220446e-16,2.220446e-16,-3.571586e-17,0,0,0,0,2.248987e-16,-2.248987e-16,2.248987e-16,-40.431122,2.998649e-16,2.596907e-16,0,0,0,0,0,0
2.491639,0.8236,-10.833375,1.891618e-12,0,0,1.891618e-12,2.220446e-16,0,-3.111023e-17,0,0,0,0,2.26321e-16,-4.27643e-18,1.152987e-16,37.173138,1.537316e-16,1.523262e-16,0,0,0,0,0,0
2.53893,0.8236,-10.833287,1.891618e-12,0,0,1.891618e-12,-2.220446e-16,0,7.715909e-18,0,0,0,0,2.678e-19,-2.223124e-16,1.112901e-16,-46.987797,1.483868e-16,1.482976e-16,0,0,0,0,0,0
2.58622,0.8236,-10.827825,1.891618e-12,0,0,1.891618e-12,0,4.440892e-16,-3.222376e-17,0,0,0,0,4.464152e-16,-2.32602e-18,2.243706e-16,-40.871357,2.991608e-16,2.983885e-16,0,0,0,0,0,0
2.633511,0.8236,-10.817758,1.891618e-12,0,0,1.891618e-12,0,-1.110223e-16,-1.567264e-17,0,0,0,0,2.170038e-18,-1.131923e-16,5.768119e-17,37.116932,7.690825e-17,7.619521e-17,0,0,0,0,0,0
2.680801,0.8236,-10.806504,1.891618e-12,0,0,1.891618e-12,2.220446e-16,0,3.949373e-17,0,0,0,0,2.288599e-16,-6.815324e-18,1.178376e-16,54.790947,1.571168e-16,1.54895e-16,0,0,0,0,0,0
2.728091,0.8236,-10.797147,1.891618e-12,0,0,1.891618e-12,2.220446e-16,-1.110223e-16,-1.771584e-17,0,0,0,0,2.229843e-16,-1.11962e-16,1.674731e-16,41.963856,2.232975e-16,1.968905e-16,0,0,0,0,0,0
2.775382,0.8236,-10.789986,1.891618e-12,0,0,1.891618e-12,-2.220446e-16,-2.220446e-16,-6.361387e-18,0,0,0,0,-2.156832e-16,-2.28406e-16,6.361387e-18,0,8.481849e-18,1.482119e-16,0,0,0,0,0,0
2.822672,0.8236,-10.781719,1.891618e-12,0,0,1.891618e-12,2.220446e-16,2.220446e-16,-6.992248e-18,0,0,0,0,2.290369e-16,2.150524e-16,6.992248e-18,0,9.322997e-18,1.482498e-16,0,0,0,0,0,0
2.869963,0.8236,-10.768859,1.891618e-12,0,0,1.891618e-12,2.220446e-16,0,-1.985678e-17,0,0,0,0,2.238064e-16,-1.761754e-18,1.127841e-16,39.929821,1.503787e-16,1.497949e-16,0,0,0,0,0,0
2.917253,0.8236,-10.750395,1.891618e-12,0,0,1.891618e-12,0,0,-9.162531e-18,0,0,0,0,9.162531e-18,-9.162531e-18,9.162531e-18,0,1.221671e-17,1.057998e-17,0,0,0,0,0,0
2.964544,0.8236,-10.727468,1.891618e-12,0,0,1.891618e-12,4.440892e-16,0,5.578597e-18,0,0,0,0,4.441593e-16,-7.006665e-20,2.221147e-16,45.719593,2.961529e-16,2.961295e-16,0,0,0,0,0,0
3.011834,0.8236,-10.701721,1.891618e-12,0,0,1.891618e-12,2.220446e-16,0,-3.597415e-17,0,0,0,0,2.277275e-16,-5.682843e-18,1.167051e-16,36.023155,1.556069e-16,1.537476e-16,0,0,0,0,0,0
3.059125,0.8236,-10.673495,1.891618e-12,0,0,1.891618e-12,2.220446e-16,-1.110223e-16,-1.597459e-17,0,0,0,0,2.22809e-16,-1.117867e-16,1.672979e-16,42.260357,2.230638e-16,1.966918e-16,0,0,0,0,0,0
3.106415,0.8236,-10.642412,1.891618e-12,0,0,1.891618e-12,2.220446e-16,0,-1.214277e-17,0,0,0,0,2.227067e-16,-6.62067e-19,1.116844e-16,41.87912,1.489125e-16,1.486923e-16,0,0,0,0,0,0
3.153705,0.8236,-10.607748,1.891618e-12,0,0,1.891618e-12,0,0,1.447717e-17,0,0,0,0,1.447717e-17,-1.447717e-17,1.447717e-17,90,1.93029e-17,1.67168e-17,0,0,0,0,0,0
3.200996,0.8236,-10.567431,1.891618e-12,0,0,1.891618e-12,-2.220446e-16,-1.110223e-16,-6.048316e-19,0,0,0,0,-1.11019e-16,-2.220479e-16,5.551445e-17,-44.687874,7.401926e-17,1.281994e-16,0,0,0,0,0,0
3.248286,0.8236,-10.518487,1.891618e-12,0,0,1.891618e-12,0,0,1.727886e-17,0,0,0,0,1.727886e-17,-1.727886e-17,1.727886e-17,90,2.303848e-17,1.995191e-17,0,0,0,0,0,0
3.295577,0.8236,-10.458165,1.891618e-12,0,0,1.891618e-12,-3.330669e-16,2.220446e-16,1.117509e-17,0,0,0,0,2.222695e-16,-3.332918e-16,2.777806e-16,-46.152813,3.703742e-16,3.228813e-16,0,0,0,0,0,0
3.342867,0.8236,-10.395456,1.891618e-12,0,0,1.891618e-12,2.220446e-16,2.220446e-16,-9.420845e-18,0,0,0,0,2.314654e-16,2.126238e-16,9.420845e-18,0,1.256113e-17,1.484289e-16,0,0,0,0,0,0
1.451249,0.776309,-10.101776,1.891618e-12,0,0,1.891618e-12,2.220446e-16,0,2.327722e-18,0,0,0,0,2.22069e-16,-2.439913e-20,1.110467e-16,45.600552,1.480623e-16,1.480541e-16,0,0,0,0,0,0
1.49854,0.776309,-10.193949,1.891618e-12,0,0,1.891618e-12,2.220446e-16,2.220446e-16,-9.988725e-18,0,0,0,0,2.320333e-16,2.120559e-16,9.988725e-18,0,1.33183e-17,1.484784e-16,0,0,0,0,0,0
1.54583,0.776309,-10.296872,1.891618e-12,0,0,1.891618e-12,2.220446e-16,4.440892e-16,-5.697011e-19,0,0,0,0,4.440907e-16,2.220431e-16,1.110238e-16,-44.852997,1.480317e-16,2.563959e-16,0,0,0,0,0,0
1.593121,0.776309,-10.376892,1.891618e-12,0,0,1.891618e-12,2.220446e-16,-2.220446e-16,1.180677e-17,0,0,0,0,2.223583e-16,-2.223583e-16,2.223583e-16,46.521858,2.964777e-16,2.567572e-16,0,0,0,0,0,0
1.640411,0.776309,-10.440534,1.891618e-12,0,0,1.891618e-12,0,0,-2.045334e-17,0,0,0,0,2.045334e-17,-2.045334e-17,2.045334e-17,0,2.727112e-17,2.361748e-17,0,0,0,0,0,0
1.687701,0.776309,-10.494638,1.891618e-12,0,0,1.891618e-12,0,0,-4.884864e-17,0,0,0,0,4.884864e-17,-4.884864e-17,4.884864e-17,0,6.513152e-17,5.640555e-17,0,0,0,0,0,0
1.734992,0.776309,-10.54336,1.891618e-12,0,0,1.891618e-12,-2.220446e-16,0,3.026754e-17,0,0,0,0,4.051916e-18,-2.260965e-16,1.150742e-16,-52.624851,1.534323e-16,1.520996e-16,0,0,0,0,0,0
1.782282,0.776309,-10.588514,1.891618e-12,0,0,1.891618e-12,4.440892e-16,-1.110223e-16,1.846678e-17,0,0,0,0,4.447029e-16,-1.11636e-16,2.781694e-16,46.90324,3.708925e-16,3.398484e-16,0,0,0,0,0,0
1.829573,0.776309,-10.629519,1.891618e-12,0,0,1.891618e-12,0,0,-1.634045e-18,0,0,0,0,1.634045e-18,-1.634045e-18,1.634045e-18,0,2.178726e-18,1.886832e-18,0,0,0,0,0,0
1.876863,0.776309,-10.663178,1.891618e-12,0,0,1.891618e-12,-1.110223e-16,2.220446e-16,-1.386047e-17,0,0,0,0,2.226204e-16,-1.115981e-16,1.671093e-16,-42.621136,2.228123e-16,1.964779e-16,0,0,0,0,0,0
1.924154,0.776309,-10.689376,1.891618e-12,0,0,1.891618e-12,0,0,-9.990168e-18,0,0,0,0,9.990168e-18,-9.990168e-18,9.990168e-18,0,1.332022e-17,1.153565e-17,0,0,0,0,0,0
1.971444,0.776309,-10.712042,1.891618e-12,0,0,1.891618e-12,0,2.220446e-16,3.580612e-18,0,0,0,0,2.221023e-16,-5.772466e-20,1.1108e-16,-45.923611,1.481067e-16,1.480875e-16,0,0,0,0,0,0
2.018735,0.776309,-10.734591,1.891618e-12,0,0,1.891618e-12,-1.110223e-16,-2.220446e-16,-4.509568e-17,0,0,0,0,-9.501347e-17,-2.380534e-16,7.151998e-17,25.455288,9.535998e-17,1.383694e-16,0,0,0,0,0,0
2.066025,0.776309,-10.758329,1.891618e-12,0,0,1.891618e-12,2.220446e-16,2.220446e-16,2.886644e-17,0,0,0,0,2.50911e-16,1.931782e-16,2.886644e-17,90,3.848859e-17,1.517361e-16,0,0,0,0,0,0
2.113316,0.776309,-10.780881,1.891618e-12,0,0,1.891618e-12,0,-2.220446e-16,-3.534617e-17,0,0,0,0,5.4908e-18,-2.275354e-16,1.165131e-16,36.170044,1.553508e-16,1.535533e-16,0,0,0,0,0,0
2.160606,0.776309,-10.797995,1.891618e-12,0,0,1.891618e-12,4.440892e-16,0,-1.020074e-18,0,0,0,0,4.440915e-16,-2.343102e-21,2.22047e-16,44.868393,2.960626e-16,2.960618e-16,0,0,0,0,0,0
2.207896,0.776309,-10.809536,1.891618e-12,0,0,1.891618e-12,-1.110223e-16,0,1.342167e-17,0,0,0,0,1.599522e-18,-1.126218e-16,5.711067e-17,-51.79615,7.614757e-17,7.562003e-17,0,0,0,0,0,0
2.255187,0.776309,-10.817753,1.891618e-12,0,0,1.891618e-12,2.220446e-16,0,5.904984e-18,0,0,0,0,2.222015e-16,-1.569244e-19,1.111792e-16,46.52227,1.48239e-16,1.481867e-16,0,0,0,0,0,0
2.302477,0.776309,-10.824097,1.891618e-12,0,0,1.891618e-12,2.220446e-16,0,4.816987e-17,0,0,0,0,2.320441e-16,-9.999547e-18,1.210218e-16,56.727425,1.613625e-16,1.581347e-16,0,0,0,0,0,0
2.349768,0.776309,-10.830036,1.891618e-12,0,0,1.891618e-12,0,0,-2.121429e-17,0,0,0,0,2.121429e-17,-2.121429e-17,2.121429e-17,0,2.828572e-17,2.449615e-17,0,0,0,0,0,0
2.397058,0.776309,-10.835121,1.891618e-12,0,0,1.891618e-12,0,2.220446e-16,3.454614e-17,0,0,0,0,2.272952e-16,-5.250599e-18,1.162729e-16,-53.642132,1.550305e-16,1.533103e-16,0,0,0,0,0,0
2.444349,0.776309,-10.839112,1.891618e-12,0,0,1.891618e-12,-2.220446e-16,-1.110223e-16,1.685439e-17,0,0,0,0,-1.0852e-16,-2.245469e-16,5.801343e-17,-53.444714,7.735124e-17,1.296664e-16,0,0,0,0,0,0
2.491639,0.776309,-10.841493,1.891618e-12,0,0,1.891618e-12,-1.110223e-16,2.220446e-16,-2.28353e-17,0,0,0,0,2.236029e-16,-1.125806e-16,1.680918e-16,-41.096107,2.241224e-16,1.975922e-16,0,0,0,0,0,0
2.53893,0.776309,-10.839823,1.891618e-12,0,0,1.891618e-12,-1.110223e-16,2.220446e-16,-3.81475e-17,0,0,0,0,2.263579e-16,-1.153356e-16,1.708468e-16,-38.548981,2.277957e-16,2.00718e-16,0,0,0,0,0,0
2.58622,0.776309,-10.83265,1.891618e-12,0,0,1.891618e-12,2.220446e-16,-1.110223e-16,-1.452887e-17,0,0,0,0,2.226772e-16,-1.116549e-16,1.67166e-16,42.506985,2.22888e-16,1.965423e-16,0,0,0,0,0,0
2.633511,0.776309,-10.820839,1.891618e-12,0,0,1.891618e-12,2.220446e-16,0,-7.049933e-17,0,0,0,0,2.42537e-16,-2.049237e-17,1.315147e-16,28.792194,1.753529e-16,1.689369e-16,0,0,0,0,0,0
2.680801,0.776309,-10.808377,1.891618e-12,0,0,1.891618e-12,2.220446e-16,2.220446e-16,-8.577885e-18,0,0,0,0,2.306225e-16,2.134667e-16,8.577885e-18,0,1.143718e-17,1.483607e-16,0,0,0,0,0,0
2.728091,0.776309,-10.798855,1.891618e-12,0,0,1.891618e-12,0,2.220446e-16,3.93595e-17,0,0,0,0,2.28815e-16,-6.770406e-18,1.177927e-16,-54.760189,1.570569e-16,1.548495e-16,0,0,0,0,0,0
2.775382,0.776309,-10.792068,1.891618e-12,0,0,1.891618e-12,2.220446e-16,2.220446e-16,7.361569e-18,0,0,0,0,2.294062e-16,2.14683e-16,7.361569e-18,90,9.815426e-18,1.482736e-16,0,0,0,0,0,0
2.822672,0.776309,-10.784077,1.891618e-12,0,0,1.891618e-12,2.220446e-16,-2.220446e-16,-5.794028e-17,0,0,0,0,2.294796e-16,-2.294796e-16,2.294796e-16,37.687679,3.059728e-16,2.649802e-16,0,0,0,0,0,0
2.869963,0.776309,-10.771285,1.891618e-12,0,0,1.891618e-12,0,-1.110223e-16,-2.905297e-17,0,0,0,0,7.143161e-18,-1.181655e-16,6.265431e-17,31.186855,8.353908e-17,8.126275e-17,0,0,0,0,0,0
2.917253,0.776309,-10.752149,1.891618e-12,0,0,1.891618e-12,2.220446e-16,2.220446e-16,-3.394997e-18,0,0,0,0,2.254396e-16,2.186496e-16,3.394997e-18,0,4.526662e-18,1.480816e-16,0,0,0,0,0,0
2.964544,0.776309,-10.728678,1.891618e-12,0,0,1.891618e-12,0,-2.220446e-16,4.690947e-18,0,0,0,0,9.905742e-20,-2.221437e-16,1.111214e-16,46.209721,1.481618e-16,1.481288e-16,0,0,0,0,0,0
3.011834,0.776309,-10.702194,1.891618e-12,0,0,1.891618e-12,0,0,-2.871496e-17,0,0,0,0,2.871496e-17,-2.871496e-17,2.871496e-17,0,3.828661e-17,3.315718e-17,0,0,0,0,0,0
3.059125,0.776309,-10.67312,1.891618e-12,0,0,1.891618e-12,0,-2.220446e-16,-1.330536e-17,0,0,0,0,7.944418e-19,-2.22839e-16,1.118167e-16,41.583019,1.49089e-16,1.488249e-16,0,0,0,0,0,0
3.106415,0.776309,-10.641087,1.891618e-12,0,0,1.891618e-12,0,-1.110223e-16,-2.846364e-17,0,0,0,0,6.872073e-18,-1.178944e-16,6.238322e-17,31.426638,8.317763e-17,8.098419e-17,0,0,0,0,0,0
3.153705,0.776309,-10.605569,1.891618e-12,0,0,1.891618e-12,-2.220446e-16,-1.110223e-16,-5.048755e-18,0,0,0,0,-1.107932e-16,-2.222737e-16,5.574027e-17,-42.401615,7.432036e-17,1.2833e-16,0,0,0,0,0,0
3.200996,0.776309,-10.564854,1.891618e-12,0,0,1.891618e-12,-2.220446e-16,0,-2.320089e-17,0,0,0,0,2.398299e-18,-2.244429e-16,1.134206e-16,-39.09824,1.512275e-16,1.504344e-16,0,0,0,0,0,0
3.248286,0.776309,-10.516095,1.891618e-12,0,0,1.891618e-12,2.220446e-16,-2.220446e-16,-3.872027e-17,0,0,0,0,2.253954e-16,-2.253954e-16,2.253954e-16,40.054096,3.005271e-16,2.602641e-16,0,0,0,0,0,0
3.295577,0.776309,-10.457764,1.891618e-12,0,0,1.891618e-12,2.220446e-16,0,-3.238784e-17,0,0,0,0,2.266723e-16,-4.627704e-18,1.1565e-16,36.868389,1.542e-16,1.526808e-16,0,0,0,0,0,0
3.342867,0.776309,-10.386058,1.891618e-12,0,0,1.891618e-12,-1.110223e-16,2.220446e-16,1.683931e-17,0,0,0,0,2.228938e-16,-1.118715e-16,1.673827e-16,-47.886967,2.231769e-16,1.967879e-16,0,0,0,0,0,0
3.390158,0.776309,-10.324788,1.891618e-12,0,0,1.891618e-12,2.220446e-16,4.440892e-16,1.101461e-16,0,0,0,0,4.894578e-16,1.76676e-16,1.563909e-16,-67.386505,2.085212e-16,2.862073e-16,0,0,0,0,0,0
1.451249,0.729019,-10.107042,1.891618e-12,0,0,1.891618e-12,4.440892e-16,-1.110223e-16,3.411745e-17,0,0,0,0,4.461782e-16,-1.131113e-16,2.796448e-16,48.503853,3.728597e-16,3.414589e-16,0,0,0,0,0,0
1.49854,0.729019,-10.199561,1.891618e-12,0,0,1.891618e-12,0,2.220446e-16,7.438048e-17,0,0,0,0,2.446577e-16,-2.261305e-17,1.336354e-16,-61.910248,1.781805e-16,1.711415e-16,0,0,0,0,0,0
1.54583,0.729019,-10.301388,1.891618e-12,0,0,1.891618e-12,0,-2.220446e-16,1.175164e-17,0,0,0,0,6.20219e-19,-2.226648e-16,1.116425e-16,48.021111,1.488567e-16,1.486504e-16,0,0,0,0,0,0
1.593121,0.729019,-10.380358,1.891618e-12,0,0,1.891618e-12,0,0,3.752293e-18,0,0,0,0,3.752293e-18,-3.752293e-18,3.752293e-18,90,5.003058e-18,4.332775e-18,0,0,0,0,0,0
1.640411,0.729019,-10.442609,1.891618e-12,0,0,1.891618e-12,0,0,3.408048e-17,0,0,0,0,3.408048e-17,-3.408048e-17,3.408048e-17,90,4.544064e-17,3.935275e-17,0,0,0,0,0,0
1.687701,0.729019,-10.495692,1.891618e-12,0,0,1.891618e-12,-2.220446e-16,-1.110223e-16,-1.284883e-18,0,0,0,0,-1.110074e-16,-2.220595e-16,5.552602e-17,-44.337025,7.403469e-17,1.282061e-16,0,0,0,0,0,0
1.734992,0.729019,-10.544616,1.891618e-12,0,0,1.891618e-12,-2.220446e-16,2.220446e-16,4.994923e-18,0,0,0,0,2.221008e-16,-2.221008e-16,2.221008e-16,-45.644329,2.961344e-16,2.564599e-16,0,0,0,0,0,0
1.782282,0.729019,-10.590864,1.891618e-12,0,0,1.891618e-12,-2.220446e-16,2.220446e-16,1.57686e-17,0,0,0,0,2.226038e-16,-2.226038e-16,2.226038e-16,-47.031033,2.968051e-16,2.570407e-16,0,0,0,0,0,0
1.829573,0.729019,-10.632855,1.891618e-12,0,0,1.891618e-12,-2.220446e-16,0,-8.065458e-17,0,0,0,0,2.62042e-17,-2.482488e-16,1.372265e-16,-27.001324,1.829687e-16,1.748895e-16,0,0,0,0,0,0
1.876863,0.729019,-10.667054,1.891618e-12,0,0,1.891618e-12,0,0,2.578328e-17,0,0,0,0,2.578328e-17,-2.578328e-17,2.578328e-17,90,3.437771e-17,2.977197e-17,0,0,0,0,0,0
1.924154,0.729019,-10.693226,1.891618e-12,0,0,1.891618e-12,-1.110223e-16,0,-7.265813e-17,0,0,0,0,3.592566e-17,-1.46948e-16,9.143682e-17,-18.689999,1.219158e-16,1.1188e-16,0,0,0,0,0,0
1.971444,0.729019,-10.715456,1.891618e-12,0,0,1.891618e-12,-1.110223e-16,-2.220446e-16,-5.978428e-18,0,0,0,0,-1.107013e-16,-2.223656e-16,5.583216e-17,41.926533,7.444287e-17,1.283832e-16,0,0,0,0,0,0
2.018735,0.729019,-10.736909,1.891618e-12,0,0,1.891618e-12,2.220446e-16,-1.110223e-16,-1.061633e-17,0,0,0,0,2.223827e-16,-1.113603e-16,1.668715e-16,43.176197,2.224953e-16,1.962083e-16,0,0,0,0,0,0
2.066025,0.729019,-10.759132,1.891618e-12,0,0,1.891618e-12,2.220446e-16,2.220446e-16,2.041282e-17,0,0,0,0,2.424574e-16,2.016318e-16,2.041282e-17,90,2.721709e-17,1.498946e-16,0,0,0,0,0,0
2.113316,0.729019,-10.780051,1.891618e-12,0,0,1.891618e-12,0,2.220446e-16,-1.645981e-17,0,0,0,0,2.232581e-16,-1.213507e-18,1.122358e-16,-40.78347,1.496477e-16,1.492449e-16,0,0,0,0,0,0
2.160606,0.729019,-10.796533,1.891618e-12,0,0,1.891618e-12,4.440892e-16,0,-1.902638e-17,0,0,0,0,4.449029e-16,-8.136677e-19,2.228583e-16,42.551224,2.971444e-16,2.968735e-16,0,0,0,0,0,0
2.207896,0.729019,-10.808849,1.891618e-12,0,0,1.891618e-12,2.220446e-16,2.220446e-16,-1.056923e-17,0,0,0,0,2.326138e-16,2.114754e-16,1.056923e-17,0,1.409231e-17,1.48532e-16,0,0,0,0,0,0
2.255187,0.729019,-10.819029,1.891618e-12,0,0,1.891618e-12,2.220446e-16,2.220446e-16,-1.749753e-17,0,0,0,0,2.395421e-16,2.045471e-16,1.749753e-17,0,2.333004e-17,1.494022e-16,0,0,0,0,0,0
2.302477,0.729019,-10.828098,1.891618e-12,0,0,1.891618e-12,0,-2.220446e-16,-2.685066e-17,0,0,0,0,3.200768e-18,-2.252454e-16,1.142231e-16,38.202061,1.522974e-16,1.512418e-16,0,0,0,0,0,0
2.349768,0.729019,-10.836805,1.891618e-12,0,0,1.891618e-12,-1.110223e-16,2.220446e-16,3.850904e-18,0,0,0,0,2.220891e-16,-1.110668e-16,1.66578e-16,-45.662334,2.22104e-16,1.958754e-16,0,0,0,0,0,0
2.397058,0.729019,-10.84373,1.891618e-12,0,0,1.891618e-12,0,0,-2.985367e-17,0,0,0,0,2.985367e-17,-2.985367e-17,2.985367e-17,0,3.980489e-17,3.447205e-17,0,0,0,0,0,0
2.444349,0.729019,-10.848396,1.891618e-12,0,0,1.891618e-12,2.220446e-16,0,-2.41527e-17,0,0,0,0,2.246414e-16,-2.596819e-18,1.136191e-16,38.863319,1.514922e-16,1.50634e-16,0,0,0,0,0,0
2.491639,0.729019,-10.850407,1.891618e-12,0,0,1.891618e-12,2.220446e-16,0,-1.812857e-17,0,0,0,0,2.235149e-16,-1.470349e-18,1.124926e-16,40.363075,1.499902e-16,1.495025e-16,0,0,0,0,0,0
2.53893,0.729019,-10.847894,1.891618e-12,0,0,1.891618e-12,2.220446e-16,2.220446e-16,1.928797e-18,0,0,0,0,2.239734e-16,2.201158e-16,1.928797e-18,90,2.57173e-18,1.480465e-16,0,0,0,0,0,0
2.58622,0.729019,-10.839963,1.891618e-12,0,0,1.891618e-12,0,4.440892e-16,9.654854e-18,0,0,0,0,4.44299e-16,-2.098051e-19,2.222544e-16,-46.244873,2.963392e-16,2.962693e-16,0,0,0,0,0,0
2.633511,0.729019,-10.827644,1.891618e-12,0,0,1.891618e-12,2.220446e-16,0,-1.392614e-17,0,0,0,0,2.229146e-16,-8.700081e-19,1.118923e-16,41.425205,1.491898e-16,1.489006e-16,0,0,0,0,0,0
2.680801,0.729019,-10.814966,1.891618e-12,0,0,1.891618e-12,0,-2.220446e-16,1.496991e-17,0,0,0,0,1.004703e-18,-2.230493e-16,1.12027e-16,48.839638,1.493693e-16,1.490356e-16,0,0,0,0,0,0
2.728091,0.729019,-10.805295,1.891618e-12,0,0,1.891618e-12,2.220446e-16,0,8.852135e-18,0,0,0,0,2.223969e-16,-3.523443e-19,1.113746e-16,47.279358,1.484995e-16,1.483822e-16,0,0,0,0,0,0
2.775382,0.729019,-10.798215,1.891618e-12,0,0,1.891618e-12,2.220446e-16,-1.110223e-16,-2.844831e-17,0,0,0,0,2.24457e-16,-1.134347e-16,1.689458e-16,40.152969,2.252611e-16,1.98561e-16,0,0,0,0,0,0
2.822672,0.729019,-10.789572,1.891618e-12,0,0,1.891618e-12,2.220446e-16,0,8.060852e-18,0,0,0,0,2.223369e-16,-2.922472e-19,1.113146e-16,47.076355,1.484194e-16,1.483221e-16,0,0,0,0,0,0
2.869963,0.729019,-10.775809,1.891618e-12,0,0,1.891618e-12,-1.110223e-16,0,1.526227e-17,0,0,0,0,2.05989e-18,-1.130822e-16,5.757104e-17,-52.686543,7.676139e-17,7.608405e-17,0,0,0,0,0,0
2.917253,0.729019,-10.755502,1.891618e-12,0,0,1.891618e-12,-1.110223e-16,2.220446e-16,1.623489e-17,0,0,0,0,2.228341e-16,-1.118118e-16,1.673229e-16,-47.784008,2.230972e-16,1.967202e-16,0,0,0,0,0,0
2.964544,0.729019,-10.730763,1.891618e-12,0,0,1.891618e-12,-1.110223e-16,0,-3.579526e-17,0,0,0,0,1.054026e-17,-1.215626e-16,6.605141e-17,-28.592428,8.806855e-17,8.477383e-17,0,0,0,0,0,0
3.011834,0.729019,-10.70285,1.891618e-12,0,0,1.891618e-12,2.220446e-16,0,-3.240423e-18,0,0,0,0,2.220919e-16,-4.727927e-20,1.110696e-16,44.164089,1.480928e-16,1.48077e-16,0,0,0,0,0,0
3.059125,0.729019,-10.672276,1.891618e-12,0,0,1.891618e-12,2.220446e-16,0,3.886055e-17,0,0,0,0,2.286492e-16,-6.604624e-18,1.176269e-16,54.645653,1.568359e-16,1.546814e-16,0,0,0,0,0,0
3.106415,0.729019,-10.63906,1.891618e-12,0,0,1.891618e-12,-2.220446e-16,2.220446e-16,-7.62099e-18,0,0,0,0,2.221753e-16,-2.221753e-16,2.221753e-16,-44.017136,2.962338e-16,2.56546e-16,0,0,0,0,0,0
3.153705,0.729019,-10.602856,1.891618e-12,0,0,1.891618e-12,-2.220446e-16,-1.110223e-16,2.639771e-17,0,0,0,0,-1.050654e-16,-2.280015e-16,6.14681e-17,-57.716454,8.195747e-17,1.317715e-16,0,0,0,0,0,0
3.200996,0.729019,-10.562228,1.891618e-12,0,0,1.891618e-12,2.220446e-16,2.220446e-16,1.118495e-17,0,0,0,0,2.332296e-16,2.108597e-16,1.118495e-17,90,1.491327e-17,1.485921e-16,0,0,0,0,0,0
3.248286,0.729019,-10.514249,1.891618e-12,0,0,1.891618e-12,0,2.220446e-16,-4.958105e-18,0,0,0,0,2.221552e-16,-1.10656e-19,1.11133e-16,-43.721474,1.481773e-16,1.481404e-16,0,0,0,0,0,0
3.295577,0.729019,-10.457149,1.891618e-12,0,0,1.891618e-12,0,0,-8.975212e-18,0,0,0,0,8.975212e-18,-8.975212e-18,8.975212e-18,0,1.196695e-17,1.036368e-17,0,0,0,0,0,0
3.342867,0.729019,-10.386693,1.891618e-12,0,0,1.891618e-12,2.220446e-16,0,2.423176e-17,0,0,0,0,2.246583e-16,-2.613651e-18,1.13636e-16,51.156155,1.515146e-16,1.50651e-16,0,0,0,0,0,0
3.390158,0.729019,-10.32277,1.891618e-12,0,0,1.891618e-12,4.440892e-16,4.440892e-16,-2.801589e-17,0,0,0,0,4.721051e-16,4.160733e-16,2.801589e-17,0,3.735452e-17,2.978217e-16,0,0,0,0,0,0
1.451249,0.681729,-10.109851,1.891618e-12,0,0,1.891618e-12,-3.330669e-16,-3.330669e-16,-2.063806e-17,0,0,0,0,-3.124288e-16,-3.53705e-16,2.063806e-17,0,2.751742e-17,2.233198e-16,0,0,0,0,0,0
1.49854,0.681729,-10.201365,1.891618e-12,0,0,1.891618e-12,0,0,-2.060308e-17,0,0,0,0,2.060308e-17,-2.060308e-17,2.060308e-17,0,2.747077e-17,2.379038e-17,0,0,0,0,0,0
1.54583,0.681729,-10.301547,1.891618e-12,0,0,1.891618e-12,-2.220446e-16,0,6.66322e-17,0,0,0,0,1.846052e-17,-2.405051e-16,1.294828e-16,-60.485447,1.726438e-16,1.668311e-16,0,0,0,0,0,0
1.593121,0.681729,-10.379513,1.891618e-12,0,0,1.891618e-12,-1.110223e-16,2.220446e-16,-2.262819e-17,0,0,0,0,2.235749e-16,-1.125526e-16,1.680638e-16,-41.131084,2.24085e-16,1.975604e-16,0,0,0,0,0,0
1.640411,0.681729,-10.440656,1.891618e-12,0,0,1.891618e-12,-2.220446e-16,2.220446e-16,-1.164129e-17,0,0,0,0,2.223496e-16,-2.223496e-16,2.223496e-16,-43.499432,2.964661e-16,2.567471e-16,0,0,0,0,0,0
1.687701,0.681729,-10.493374,1.891618e-12,0,0,1.891618e-12,-2.220446e-16,2.220446e-16,8.446681e-19,0,0,0,0,2.220462e-16,-2.220462e-16,2.220462e-16,-45.108978,2.960616e-16,2.563969e-16,0,0,0,0,0,0
1.734992,0.681729,-10.543011,1.891618e-12,0,0,1.891618e-12,-2.220446e-16,2.220446e-16,3.625115e-17,0,0,0,0,2.249843e-16,-2.249843e-16,2.249843e-16,-49.636173,2.999791e-16,2.597895e-16,0,0,0,0,0,0
1.782282,0.681729,-10.590574,1.891618e-12,0,0,1.891618e-12,0,-1.110223e-16,-1.902095e-17,0,0,0,0,3.168355e-18,-1.141907e-16,5.86795e-17,35.542961,7.823934e-17,7.72049e-17,0,0,0,0,0,0
1.829573,0.681729,-10.633787,1.891618e-12,0,0,1.891618e-12,-4.440892e-16,2.220446e-16,-1.356627e-17,0,0,0,0,2.223208e-16,-4.443654e-16,3.333431e-16,-43.833778,4.444575e-16,3.91963e-16,0,0,0,0,0,0
1.876863,0.681729,-10.668946,1.891618e-12,0,0,1.891618e-12,0,-2.220446e-16,1.870575e-17,0,0,0,0,1.564805e-18,-2.236094e-16,1.125871e-16,49.781868,1.501161e-16,1.495973e-16,0,0,0,0,0,0
1.924154,0.681729,-10.695794,1.891618e-12,0,0,1.891618e-12,2.220446e-16,0,-1.19763e-17,0,0,0,0,2.226887e-16,-6.440913e-19,1.116664e-16,41.92157,1.488885e-16,1.486743e-16,0,0,0,0,0,0
1.971444,0.681729,-10.718337,1.891618e-12,0,0,1.891618e-12,-1.110223e-16,0,-4.894272e-17,0,0,0,0,1.849478e-17,-1.295171e-16,7.400593e-17,-24.299112,9.867457e-17,9.312386e-17,0,0,0,0,0,0
2.018735,0.681729,-10.739439,1.891618e-12,0,0,1.891618e-12,0,4.440892e-16,-7.778348e-18,0,0,0,0,4.442254e-16,-1.361982e-19,2.221808e-16,-43.996857,2.962411e-16,2.961957e-16,0,0,0,0,0,0
2.066025,0.681729,-10.760754,1.891618e-12,0,0,1.891618e-12,0,2.220446e-16,1.847545e-17,0,0,0,0,2.235714e-16,-1.52677e-18,1.125491e-16,-49.724064,1.500654e-16,1.495591e-16,0,0,0,0,0,0
2.113316,0.681729,-10.780423,1.891618e-12,0,0,1.891618e-12,2.220446e-16,-1.110223e-16,-2.959757e-17,0,0,0,0,2.246543e-16,-1.13632e-16,1.691432e-16,39.961098,2.255242e-16,1.987849e-16,0,0,0,0,0,0
2.160606,0.681729,-10.796401,1.891618e-12,0,0,1.891618e-12,-1.110223e-16,-1.110223e-16,1.688065e-18,0,0,0,0,-1.093342e-16,-1.127104e-16,1.688065e-18,90,2.250753e-18,7.404053e-17,0,0,0,0,0,0
2.207896,0.681729,-10.809342,1.891618e-12,0,0,1.891618e-12,2.220446e-16,2.220446e-16,5.161317e-18,0,0,0,0,2.272059e-16,2.168833e-16,5.161317e-18,90,6.881756e-18,1.481497e-16,0,0,0,0,0,0
2.255187,0.681729,-10.820973,1.891618e-12,0,0,1.891618e-12,0,0,-1.182163e-17,0,0,0,0,1.182163e-17,-1.182163e-17,1.182163e-17,0,1.576218e-17,1.365045e-17,0,0,0,0,0,0
2.302477,0.681729,-10.831774,1.891618e-12,0,0,1.891618e-12,-1.110223e-16,2.220446e-16,-6.172106e-18,0,0,0,0,2.22159e-16,-1.111366e-16,1.666478e-16,-43.938728,2.22197e-16,1.959546e-16,0,0,0,0,0,0
2.349768,0.681729,-10.841932,1.891618e-12,0,0,1.891618e-12,-1.110223e-16,-1.110223e-16,1.299354e-17,0,0,0,0,-9.802876e-17,-1.240158e-16,1.299354e-17,90,1.732472e-17,7.552027e-17,0,0,0,0,0,0
2.397058,0.681729,-10.849612,1.891618e-12,0,0,1.891618e-12,-1.110223e-16,0,3.196579e-17,0,0,0,0,8.545854e-18,-1.195682e-16,6.405701e-17,-59.967628,8.540934e-17,8.270802e-17,0,0,0,0,0,0
2.444349,0.681729,-10.854419,1.891618e-12,0,0,1.891618e-12,-1.110223e-16,0,-1.194298e-17,0,0,0,0,1.270208e-18,-1.122925e-16,5.678136e-17,-38.929073,7.570848e-17,7.528865e-17,0,0,0,0,0,0
2.491639,0.681729,-10.856048,1.891618e-12,0,0,1.891618e-12,-1.110223e-16,-1.110223e-16,1.700854e-17,0,0,0,0,-9.401376e-17,-1.280308e-16,1.700854e-17,90,2.267805e-17,7.657625e-17,0,0,0,0,0,0
2.53893,0.681729,-10.853404,1.891618e-12,0,0,1.891618e-12,-4.440892e-16,-1.110223e-16,2.780458e-17,0,0,0,0,-1.087171e-16,-4.463944e-16,1.688386e-16,-49.739361,2.251182e-16,2.687888e-16,0,0,0,0,0,0
2.58622,0.681729,-10.845799,1.891618e-12,0,0,1.891618e-12,-1.110223e-16,2.220446e-16,2.326607e-17,0,0,0,0,2.23662e-16,-1.126397e-16,1.681508e-16,-48.976604,2.242011e-16,1.976592e-16,0,0,0,0,0,0
2.633511,0.681729,-10.834651,1.891618e-12,0,0,1.891618e-12,-1.110223e-16,-2.220446e-16,-2.413986e-17,0,0,0,0,-1.060006e-16,-2.270663e-16,6.053281e-17,33.24873,8.071041e-17,1.311929e-16,0,0,0,0,0,0
2.680801,0.681729,-10.823287,1.891618e-12,0,0,1.891618e-12,-1.110223e-16,2.220446e-16,-5.002678e-18,0,0,0,0,2.221197e-16,-1.110974e-16,1.666086e-16,-44.139675,2.221448e-16,1.959101e-16,0,0,0,0,0,0
2.728091,0.681729,-10.814,1.891618e-12,0,0,1.891618e-12,-2.220446e-16,2.220446e-16,-4.750323e-18,0,0,0,0,2.220954e-16,-2.220954e-16,2.220954e-16,-44.387215,2.961272e-16,2.564537e-16,0,0,0,0,0,0
2.775382,0.681729,-10.806294,1.891618e-12,0,0,1.891618e-12,-1.110223e-16,2.220446e-16,1.315982e-17,0,0,0,0,2.225638e-16,-1.115415e-16,1.670526e-16,-47.259121,2.227368e-16,1.964136e-16,0,0,0,0,0,0
2.822672,0.681729,-10.796331,1.891618e-12,0,0,1.891618e-12,-3.330669e-16,-1.110223e-16,1.352571e-17,0,0,0,0,-1.102014e-16,-3.338878e-16,1.118432e-16,-48.473022,1.491242e-16,1.964468e-16,0,0,0,0,0,0
2.869963,0.681729,-10.781064,1.891618e-12,0,0,1.891618e-12,0,2.220446e-16,4.781816e-17,0,0,0,0,2.319046e-16,-9.859988e-18,1.208823e-16,-56.650959,1.611764e-16,1.579923e-16,0,0,0,0,0,0
2.917253,0.681729,-10.759531,1.891618e-12,0,0,1.891618e-12,2.220446e-16,-2.220446e-16,-8.436777e-18,0,0,0,0,2.222048e-16,-2.222048e-16,2.222048e-16,43.912022,2.962731e-16,2.5658e-16,0,0,0,0,0,0
2.964544,0.681729,-10.733691,1.891618e-12,0,0,1.891618e-12,2.220446e-16,0,-1.810961e-18,0,0,0,0,2.220594e-16,-1.476893e-20,1.110371e-16,44.532745,1.480494e-16,1.480445e-16,0,0,0,0,0,0
3.011834,0.681729,-10.704659,1.891618e-12,0,0,1.891618e-12,-1.110223e-16,0,1.599606e-17,0,0,0,0,2.258753e-18,-1.132811e-16,5.77699e-17,-53.037418,7.702654e-17,7.628477e-17,0,0,0,0,0,0
3.059125,0.681729,-10.672957,1.891618e-12,0,0,1.891618e-12,2.220446e-16,2.220446e-16,-9.822042e-18,0,0,0,0,2.318666e-16,2.122226e-16,9.822042e-18,0,1.309606e-17,1.484636e-16,0,0,0,0,0,0
3.106415,0.681729,-10.638946,1.891618e-12,0,0,1.891618e-12,2.220446e-16,2.220446e-16,1.345058e-17,0,0,0,0,2.354952e-16,2.08594e-16,1.345058e-17,90,1.793411e-17,1.488423e-16,0,0,0,0,0,0
3.153705,0.681729,-10.602563,1.891618e-12,0,0,1.891618e-12,0,-1.110223e-16,-2.388284e-17,0,0,0,0,4.919619e-18,-1.159419e-16,6.043077e-17,33.360466,8.057436e-17,7.898557e-17,0,0,0,0,0,0
3.200996,0.681729,-10.562664,1.891618e-12,0,0,1.891618e-12,0,0,-4.786371e-17,0,0,0,0,4.786371e-17,-4.786371e-17,4.786371e-17,0,6.381829e-17,5.526826e-17,0,0,0,0,0,0
3.248286,0.681729,-10.516078,1.891618e-12,0,0,1.891618e-12,-2.220446e-16,0,9.670654e-18,0,0,0,0,4.203877e-19,-2.22465e-16,1.114427e-16,-47.489105,1.485903e-16,1.484503e-16,0,0,0,0,0,0
3.295577,0.681729,-10.460398,1.891618e-12,0,0,1.891618e-12,-1.110223e-16,0,5.639538e-17,0,0,0,0,2.362119e-17,-1.346435e-16,7.913234e-17,-67.726357,1.055098e-16,9.85839e-17,0,0,0,0,0,0
3.342867,0.681729,-10.391338,1.891618e-12,0,0,1.891618e-12,2.220446e-16,4.440892e-16,5.893064e-18,0,0,0,0,4.442455e-16,2.218883e-16,1.111786e-16,-46.519203,1.482381e-16,2.564853e-16,0,0,0,0,0,0
3.390158,0.681729,-10.329353,1.891618e-12,0,0,1.891618e-12,2.220446e-16,0,2.385004e-17,0,0,0,0,2.245775e-16,-2.532865e-18,1.135552e-16,51.062069,1.514069e-16,1.505697e-16,0,0,0,0,0,0
1.451249,0.634438,-10.109856,1.891618e-12,0,0,1.891618e-12,0,0,1.325966e-17,0,0,0,0,1.325966e-17,-1.325966e-17,1.325966e-17,90,1.767955e-17,1.531094e-17,0,0,0,0,0,0
1.49854,0.634438,-10.199631,1.891618e-12,0,0,1.891618e-12,2.220446e-16,0,3.232362e-17,0,0,0,0,2.266543e-16,-4.609734e-18,1.15632e-16,53.116333,1.541761e-16,1.526627e-16,0,0,0,0,0,0
1.54583,0.634438,-10.298037,1.891618e-12,0,0,1.891618e-12,0,2.220446e-16,3.112057e-17,0,0,0,0,2.263238e-16,-4.279223e-18,1.153015e-16,-52.829338,1.537354e-16,1.52329e-16,0,0,0,0,0,0
1.593121,0.634438,-10.375252,1.891618e-12,0,0,1.891618e-12,2.220446e-16,-2.220446e-16,-1.45554e-17,0,0,0,0,2.225212e-16,-2.225212e-16,2.225212e-16,43.124767,2.966949e-16,2.569453e-16,0,0,0,0,0,0
1.640411,0.634438,-10.436219,1.891618e-12,0,0,1.891618e-12,0,2.220446e-16,-1.803039e-17,0,0,0,0,2.234992e-16,-1.45457e-18,1.124769e-16,-40.387756,1.499692e-16,1.494867e-16,0,0,0,0,0,0
1.687701,0.634438,-10.489267,1.891618e-12,0,0,1.891618e-12,0,2.220446e-16,5.938215e-18,0,0,0,0,2.222033e-16,-1.586943e-19,1.11181e-16,-46.530823,1.482413e-16,1.481885e-16,0,0,0,0,0,0
1.734992,0.634438,-10.539662,1.891618e-12,0,0,1.891618e-12,2.220446e-16,2.220446e-16,-1.504555e-17,0,0,0,0,2.370902e-16,2.069991e-16,1.504555e-17,0,2.006073e-17,1.490457e-16,0,0,0,0,0,0
1.782282,0.634438,-10.587981,1.891618e-12,0,0,1.891618e-12,0,2.220446e-16,-1.489708e-17,0,0,0,0,2.230396e-16,-9.949931e-19,1.120173e-16,-41.178822,1.493564e-16,1.490258e-16,0,0,0,0,0,0
1.829573,0.634438,-10.632069,1.891618e-12,0,0,1.891618e-12,0,0,4.749774e-18,0,0,0,0,4.749774e-18,-4.749774e-18,4.749774e-18,90,6.333033e-18,5.484567e-18,0,0,0,0,0,0
1.876863,0.634438,-10.668235,1.891618e-12,0,0,1.891618e-12,0,-1.110223e-16,1.956085e-17,0,0,0,0,3.34558e-18,-1.143679e-16,5.885673e-17,54.705643,7.847564e-17,7.738456e-17,0,0,0,0,0,0
1.924154,0.634438,-10.696233,1.891618e-12,0,0,1.891618e-12,-2.220446e-16,0,2.010319e-17,0,0,0,0,1.805398e-18,-2.2385e-16,1.128277e-16,-50.131767,1.504369e-16,1.498388e-16,0,0,0,0,0,0
1.971444,0.634438,-10.719902,1.891618e-12,0,0,1.891618e-12,-3.330669e-16,2.220446e-16,5.37933e-18,0,0,0,0,2.220967e-16,-3.33119e-16,2.776079e-16,-45.555157,3.701438e-16,3.226831e-16,0,0,0,0,0,0
2.018735,0.634438,-10.741591,1.891618e-12,0,0,1.891618e-12,2.220446e-16,-1.110223e-16,-1.751298e-17,0,0,0,0,2.229629e-16,-1.119406e-16,1.674518e-16,41.998367,2.23269e-16,1.968663e-16,0,0,0,0,0,0
2.066025,0.634438,-10.762732,1.891618e-12,0,0,1.891618e-12,0,-1.110223e-16,5.033016e-17,0,0,0,0,1.941957e-17,-1.304419e-16,7.493072e-17,66.098785,9.990762e-17,9.410473e-17,0,0,0,0,0,0
2.113316,0.634438,-10.781886,1.891618e-12,0,0,1.891618e-12,-3.330669e-16,2.220446e-16,2.732105e-17,0,0,0,0,2.23386e-16,-3.344083e-16,2.788972e-16,-47.810886,3.718629e-16,3.241621e-16,0,0,0,0,0,0
2.160606,0.634438,-10.797566,1.891618e-12,0,0,1.891618e-12,2.220446e-16,-2.220446e-16,1.620222e-17,0,0,0,0,2.226349e-16,-2.226349e-16,2.226349e-16,47.086689,2.968466e-16,2.570767e-16,0,0,0,0,0,0
2.207896,0.634438,-10.810695,1.891618e-12,0,0,1.891618e-12,2.220446e-16,0,7.8548e-18,0,0,0,0,2.223221e-16,-2.775157e-19,1.112998e-16,47.02346,1.483998e-16,1.483073e-16,0,0,0,0,0,0
2.255187,0.634438,-10.822875,1.891618e-12,0,0,1.891618e-12,-2.220446e-16,2.220446e-16,5.855075e-18,0,0,0,0,2.221218e-16,-2.221218e-16,2.221218e-16,-45.755238,2.961624e-16,2.564841e-16,0,0,0,0,0,0
2.302477,0.634438,-10.834049,1.891618e-12,0,0,1.891618e-12,0,0,6.225346e-18,0,0,0,0,6.225346e-18,-6.225346e-18,6.225346e-18,90,8.300461e-18,7.18841e-18,0,0,0,0,0,0
2.349768,0.634438,-10.844057,1.891618e-12,0,0,1.891618e-12,-1.110223e-16,2.220446e-16,3.915765e-18,0,0,0,0,2.220906e-16,-1.110683e-16,1.665795e-16,-45.673485,2.22106e-16,1.958771e-16,0,0,0,0,0,0
2.397058,0.634438,-10.851213,1.891618e-12,0,0,1.891618e-12,-1.110223e-16,2.220446e-16,2.653812e-17,0,0,0,0,2.241459e-16,-1.131236e-16,1.686347e-16,-49.527149,2.248463e-16,1.982081e-16,0,0,0,0,0,0
2.444349,0.634438,-10.855405,1.891618e-12,0,0,1.891618e-12,-1.110223e-16,2.220446e-16,-6.883067e-18,0,0,0,0,2.221868e-16,-1.111645e-16,1.666756e-16,-43.816616,2.222342e-16,1.959862e-16,0,0,0,0,0,0
2.491639,0.634438,-10.856476,1.891618e-12,0,0,1.891618e-12,2.220446e-16,-1.110223e-16,-5.486526e-18,0,0,0,0,2.221349e-16,-1.111127e-16,1.666238e-16,44.056522,2.221651e-16,1.959274e-16,0,0,0,0,0,0
2.53893,0.634438,-10.854045,1.891618e-12,0,0,1.891618e-12,-1.110223e-16,-1.110223e-16,-8.466115e-18,0,0,0,0,-1.025562e-16,-1.194884e-16,8.466115e-18,0,1.128815e-17,7.465767e-17,0,0,0,0,0,0
2.58622,0.634438,-10.847615,1.891618e-12,0,0,1.891618e-12,-1.110223e-16,-1.110223e-16,-1.41293e-17,0,0,0,0,-9.689301e-17,-1.251516e-16,1.41293e-17,0,1.883906e-17,7.579171e-17,0,0,0,0,0,0
2.633511,0.634438,-10.838708,1.891618e-12,0,0,1.891618e-12,0,0,-2.709659e-17,0,0,0,0,2.709659e-17,-2.709659e-17,2.709659e-17,0,3.612879e-17,3.128845e-17,0,0,0,0,0,0
2.680801,0.634438,-10.829565,1.891618e-12,0,0,1.891618e-12,2.220446e-16,2.220446e-16,-3.587441e-17,0,0,0,0,2.57919e-16,1.861702e-16,3.587441e-17,0,4.783255e-17,1.537165e-16,0,0,0,0,0,0
2.728091,0.634438,-10.821472,1.891618e-12,0,0,1.891618e-12,-1.110223e-16,2.220446e-16,-7.224662e-18,0,0,0,0,2.222013e-16,-1.111789e-16,1.666901e-16,-43.757957,2.222535e-16,1.960026e-16,0,0,0,0,0,0
2.775382,0.634438,-10.813434,1.891618e-12,0,0,1.891618e-12,0,-1.110223e-16,2.145123e-17,0,0,0,0,4.000553e-18,-1.150229e-16,5.95117e-17,55.564037,7.934894e-17,7.804961e-17,0,0,0,0,0,0
2.822672,0.634438,-10.802235,1.891618e-12,0,0,1.891618e-12,-2.220446e-16,-2.220446e-16,-3.006002e-17,0,0,0,0,-1.919846e-16,-2.521046e-16,3.006002e-17,0,4.008003e-17,1.520448e-16,0,0,0,0,0,0
2.869963,0.634438,-10.78566,1.891618e-12,0,0,1.891618e-12,-2.220446e-16,2.220446e-16,-4.07725e-17,0,0,0,0,2.25757e-16,-2.25757e-16,2.25757e-16,-39.797543,3.010093e-16,2.606817e-16,0,0,0,0,0,0
2.917253,0.634438,-10.763377,1.891618e-12,0,0,1.891618e-12,-2.220446e-16,2.220446e-16,4.784173e-19,0,0,0,0,2.220451e-16,-2.220451e-16,2.220451e-16,-45.061726,2.960602e-16,2.563956e-16,0,0,0,0,0,0
2.964544,0.634438,-10.737157,1.891618e-12,0,0,1.891618e-12,2.220446e-16,2.220446e-16,-1.874585e-17,0,0,0,0,2.407904e-16,2.032987e-16,1.874585e-17,0,2.499447e-17,1.49604e-16,0,0,0,0,0,0
3.011834,0.634438,-10.707984,1.891618e-12,0,0,1.891618e-12,0,0,2.935244e-18,0,0,0,0,2.935244e-18,-2.935244e-18,2.935244e-18,90,3.913659e-18,3.389328e-18,0,0,0,0,0,0
3.059125,0.634438,-10.676491,1.891618e-12,0,0,1.891618e-12,-2.220446e-16,2.220446e-16,-3.041595e-17,0,0,0,0,2.241181e-16,-2.241181e-16,2.241181e-16,-41.100048,2.988242e-16,2.587893e-16,0,0,0,0,0,0
3.106415,0.634438,-10.643103,1.891618e-12,0,0,1.891618e-12,2.220446e-16,2.220446e-16,-2.7145e-17,0,0,0,0,2.491896e-16,1.948996e-16,2.7145e-17,0,3.619334e-17,1.513118e-16,0,0,0,0,0,0
3.153705,0.634438,-10.607422,1.891618e-12,0,0,1.891618e-12,4.440892e-16,0,-8.409155e-17,0,0,0,0,4.594792e-16,-1.539e-17,2.374346e-16,34.628796,3.165795e-16,3.115762e-16,0,0,0,0,0,0
3.200996,0.634438,-10.568639,1.891618e-12,0,0,1.891618e-12,-2.220446e-16,-1.110223e-16,2.01154e-17,0,0,0,0,-1.074901e-16,-2.255768e-16,5.904335e-17,-54.959419,7.872447e-17,1.302847e-16,0,0,0,0,0,0
3.248286,0.634438,-10.523417,1.891618e-12,0,0,1.891618e-12,-3.330669e-16,0,1.427074e-17,0,0,0,0,6.103325e-19,-3.336772e-16,1.671438e-16,-47.44894,2.228584e-16,2.226552e-16,0,0,0,0,0,0
3.295577,0.634438,-10.468132,1.891618e-12,0,0,1.891618e-12,2.220446e-16,-2.220446e-16,-3.522005e-17,0,0,0,0,2.248205e-16,-2.248205e-16,2.248205e-16,40.4935,2.997607e-16,2.596004e-16,0,0,0,0,0,0
3.342867,0.634438,-10.399813,1.891618e-12,0,0,1.891618e-12,2.220446e-16,-2.220446e-16,-5.572623e-17,0,0,0,0,2.289306e-16,-2.289306e-16,2.289306e-16,37.955769,3.052408e-16,2.643463e-16,0,0,0,0,0,0
3.390158,0.634438,-10.339066,1.891618e-12,0,0,1.891618e-12,2.220446e-16,0,-2.536499e-18,0,0,0,0,2.220736e-16,-2.89716e-20,1.110513e-16,44.345604,1.480684e-16,1.480587e-16,0,0,0,0,0,0
1.451249,0.587148,-10.107886,1.891618e-12,0,0,1.891618e-12,0,-1.110223e-16,-6.128062e-19,0,0,0,0,3.382383e-21,-1.110257e-16,5.551453e-17,44.683758,7.401938e-17,7.401825e-17,0,0,0,0,0,0
1.49854,0.587148,-10.196185,1.891618e-12,0,0,1.891618e-12,2.220446e-16,2.220446e-16,2.400909e-18,0,0,0,0,2.244455e-16,2.196437e-16,2.400909e-18,90,3.201212e-18,1.480557e-16,0,0,0,0,0,0
1.54583,0.587148,-10.293451,1.891618e-12,0,0,1.891618e-12,0,2.220446e-16,-2.894269e-17,0,0,0,0,2.257552e-16,-3.710564e-18,1.147329e-16,-37.694313,1.529772e-16,1.517554e-16,0,0,0,0,0,0
1.593121,0.587148,-10.370303,1.891618e-12,0,0,1.891618e-12,-1.110223e-16,2.220446e-16,4.939825e-18,0,0,0,0,2.221178e-16,-1.110955e-16,1.666067e-16,-45.849522,2.221423e-16,1.95908e-16,0,0,0,0,0,0
1.640411,0.587148,-10.431731,1.891618e-12,0,0,1.891618e-12,-2.220446e-16,-1.110223e-16,-1.552387e-17,0,0,0,0,-1.088925e-16,-2.241744e-16,5.764094e-17,-37.188091,7.685459e-17,1.294447e-16,0,0,0,0,0,0
1.687701,0.587148,-10.485359,1.891618e-12,0,0,1.891618e-12,0,0,3.277441e-18,0,0,0,0,3.277441e-18,-3.277441e-18,3.277441e-18,90,4.369921e-18,3.784463e-18,0,0,0,0,0,0
1.734992,0.587148,-10.536242,1.891618e-12,0,0,1.891618e-12,2.220446e-16,2.220446e-16,3.228659e-18,0,0,0,0,2.252733e-16,2.188159e-16,3.228659e-18,90,4.304879e-18,1.480767e-16,0,0,0,0,0,0
1.782282,0.587148,-10.58466,1.891618e-12,0,0,1.891618e-12,4.440892e-16,0,-1.701853e-17,0,0,0,0,4.447404e-16,-6.512344e-19,2.226958e-16,42.808578,2.969278e-16,2.96711e-16,0,0,0,0,0,0
1.829573,0.587148,-10.628774,1.891618e-12,0,0,1.891618e-12,2.220446e-16,0,4.093014e-18,0,0,0,0,2.2212e-16,-7.542213e-20,1.110977e-16,46.055672,1.481303e-16,1.481052e-16,0,0,0,0,0,0
1.876863,0.587148,-10.665387,1.891618e-12,0,0,1.891618e-12,2.220446e-16,2.220446e-16,-3.748677e-17,0,0,0,0,2.595314e-16,1.845578e-16,3.748677e-17,0,4.998237e-17,1.542287e-16,0,0,0,0,0,0
1.924154,0.587148,-10.694583,1.891618e-12,0,0,1.891618e-12,0,0,1.127311e-17,0,0,0,0,1.127311e-17,-1.127311e-17,1.127311e-17,90,1.503081e-17,1.301706e-17,0,0,0,0,0,0
1.971444,0.587148,-10.719862,1.891618e-12,0,0,1.891618e-12,0,-1.110223e-16,-3.887315e-17,0,0,0,0,1.225764e-17,-1.232799e-16,6.77688e-17,27.498676,9.035839e-17,8.656229e-17,0,0,0,0,0,0
2.018735,0.587148,-10.743129,1.891618e-12,0,0,1.891618e-12,2.220446e-16,0,4.402975e-17,0,0,0,0,2.304567e-16,-8.412073e-18,1.194344e-16,55.816257,1.592458e-16,1.565172e-16,0,0,0,0,0,0
2.066025,0.587148,-10.76499,1.891618e-12,0,0,1.891618e-12,0,0,-5.282743e-18,0,0,0,0,5.282743e-18,-5.282743e-18,5.282743e-18,0,7.043658e-18,6.099987e-18,0,0,0,0,0,0
2.113316,0.587148,-10.784256,1.891618e-12,0,0,1.891618e-12,-1.110223e-16,-1.110223e-16,3.164423e-17,0,0,0,0,-7.937807e-17,-1.426665e-16,3.164423e-17,90,4.219231e-17,8.254298e-17,0,0,0,0,0,0
2.160606,0.587148,-10.79998,1.891618e-12,0,0,1.891618e-12,2.220446e-16,2.220446e-16,-1.058438e-19,0,0,0,0,2.221505e-16,2.219388e-16,1.058438e-19,0,1.41125e-19,1.480298e-16,0,0,0,0,0,0
2.207896,0.587148,-10.813091,1.891618e-12,0,0,1.891618e-12,0,0,4.623669e-17,0,0,0,0,4.623669e-17,-4.623669e-17,4.623669e-17,90,6.164891e-17,5.338953e-17,0,0,0,0,0,0
2.255187,0.587148,-10.825129,1.891618e-12,0,0,1.891618e-12,-1.110223e-16,-1.110223e-16,-1.768606e-17,0,0,0,0,-9.333624e-17,-1.287084e-16,1.768606e-17,0,2.358142e-17,7.678062e-17,0,0,0,0,0,0
2.302477,0.587148,-10.835689,1.891618e-12,0,0,1.891618e-12,0,0,-1.478094e-17,0,0,0,0,1.478094e-17,-1.478094e-17,1.478094e-17,0,1.970793e-17,1.706756e-17,0,0,0,0,0,0
2.349768,0.587148,-10.844296,1.891618e-12,0,0,1.891618e-12,0,2.220446e-16,-1.482363e-17,0,0,0,0,2.230299e-16,-9.852499e-19,1.120075e-16,-41.197441,1.493434e-16,1.490161e-16,0,0,0,0,0,0
2.397058,0.587148,-10.849932,1.891618e-12,0,0,1.891618e-12,2.220446e-16,-1.110223e-16,-2.986044e-17,0,0,0,0,2.247005e-16,-1.136782e-16,1.691894e-16,39.917274,2.255858e-16,1.988373e-16,0,0,0,0,0,0
2.444349,0.587148,-10.853,1.891618e-12,0,0,1.891618e-12,0,2.220446e-16,8.851768e-18,0,0,0,0,2.223969e-16,-3.523151e-19,1.113746e-16,-47.279263,1.484995e-16,1.483822e-16,0,0,0,0,0,0
2.491639,0.587148,-10.853488,1.891618e-12,0,0,1.891618e-12,2.220446e-16,0,2.174598e-17,0,0,0,0,2.241542e-16,-2.109652e-18,1.13132e-16,50.541122,1.508426e-16,1.501443e-16,0,0,0,0,0,0
2.53893,0.587148,-10.851566,1.891618e-12,0,0,1.891618e-12,2.220446e-16,0,2.372506e-17,0,0,0,0,2.245513e-16,-2.506682e-18,1.13529e-16,51.031235,1.51372e-16,1.505434e-16,0,0,0,0,0,0
2.58622,0.587148,-10.846699,1.891618e-12,0,0,1.891618e-12,2.220446e-16,-1.110223e-16,-1.073869e-17,0,0,0,0,2.223905e-16,-1.113682e-16,1.668793e-16,43.155231,2.225058e-16,1.962171e-16,0,0,0,0,0,0
2.633511,0.587148,-10.840109,1.891618e-12,0,0,1.891618e-12,2.220446e-16,-1.110223e-16,1.47434e-17,0,0,0,0,2.226959e-16,-1.116737e-16,1.671848e-16,47.529636,2.229131e-16,1.965636e-16,0,0,0,0,0,0
2.680801,0.587148,-10.833328,1.891618e-12,0,0,1.891618e-12,0,2.220446e-16,-2.89956e-17,0,0,0,0,2.257685e-16,-3.723925e-18,1.147462e-16,-37.681526,1.52995e-16,1.517689e-16,0,0,0,0,0,0
2.728091,0.587148,-10.826887,1.891618e-12,0,0,1.891618e-12,0,2.220446e-16,1.442765e-17,0,0,0,0,2.229781e-16,-9.335319e-19,1.119558e-16,-48.702126,1.492744e-16,1.489642e-16,0,0,0,0,0,0
2.775382,0.587148,-10.81927,1.891618e-12,0,0,1.891618e-12,2.220446e-16,-2.220446e-16,3.436476e-17,0,0,0,0,2.246881e-16,-2.246881e-16,2.246881e-16,49.398796,2.995841e-16,2.594475e-16,0,0,0,0,0,0
2.822672,0.587148,-10.80742,1.891618e-12,0,0,1.891618e-12,4.440892e-16,0,-4.083928e-18,0,0,0,0,4.441267e-16,-3.75534e-20,2.220822e-16,44.473156,2.961095e-16,2.96097e-16,0,0,0,0,0,0
2.869963,0.587148,-10.789974,1.891618e-12,0,0,1.891618e-12,0,2.220446e-16,2.34929e-18,0,0,0,0,2.220695e-16,-2.485332e-20,1.110472e-16,-45.606113,1.480629e-16,1.480546e-16,0,0,0,0,0,0
2.917253,0.587148,-10.767246,1.891618e-12,0,0,1.891618e-12,-1.110223e-16,0,2.377638e-17,0,0,0,0,4.877622e-18,-1.158999e-16,6.038877e-17,-56.59314,8.051836e-17,7.894274e-17,0,0,0,0,0,0
2.964544,0.587148,-10.741381,1.891618e-12,0,0,1.891618e-12,2.220446e-16,-2.220446e-16,-2.189789e-18,0,0,0,0,2.220554e-16,-2.220554e-16,2.220554e-16,44.717487,2.960739e-16,2.564075e-16,0,0,0,0,0,0
3.011834,0.587148,-10.713241,1.891618e-12,0,0,1.891618e-12,4.440892e-16,2.220446e-16,-4.898567e-17,0,0,0,0,4.544158e-16,2.11718e-16,1.213489e-16,33.095898,1.617985e-16,2.625602e-16,0,0,0,0,0,0
3.059125,0.587148,-10.683207,1.891618e-12,0,0,1.891618e-12,2.220446e-16,2.220446e-16,1.874759e-17,0,0,0,0,2.407922e-16,2.03297e-16,1.874759e-17,90,2.499679e-17,1.496043e-16,0,0,0,0,0,0
3.106415,0.587148,-10.651412,1.891618e-12,0,0,1.891618e-12,2.220446e-16,-1.110223e-16,9.044758e-18,0,0,0,0,2.2229e-16,-1.112677e-16,1.667789e-16,46.554398,2.223719e-16,1.961032e-16,0,0,0,0,0,0
3.153705,0.587148,-10.616976,1.891618e-12,0,0,1.891618e-12,4.440892e-16,0,-7.050868e-17,0,0,0,0,4.550151e-16,-1.092595e-17,2.329706e-16,36.191563,3.106274e-16,3.070502e-16,0,0,0,0,0,0
3.200996,0.587148,-10.57889,1.891618e-12,0,0,1.891618e-12,2.220446e-16,-1.110223e-16,-1.210827e-17,0,0,0,0,2.224842e-16,-1.114619e-16,1.669731e-16,42.920734,2.226308e-16,1.963234e-16,0,0,0,0,0,0
3.248286,0.587148,-10.534132,1.891618e-12,0,0,1.891618e-12,-2.220446e-16,0,4.516313e-17,0,0,0,0,8.834527e-18,-2.308791e-16,1.198568e-16,-56.068081,1.598091e-16,1.569472e-16,0,0,0,0,0,0
3.295577,0.587148,-10.478641,1.891618e-12,0,0,1.891618e-12,2.220446e-16,2.220446e-16,-1.002619e-16,0,0,0,0,3.223065e-16,1.217827e-16,1.002619e-16,0,1.336826e-16,1.879257e-16,0,0,0,0,0,0
3.342867,0.587148,-10.409972,1.891618e-12,0,0,1.891618e-12,2.220446e-16,0,-1.741432e-18,0,0,0,0,2.220583e-16,-1.365671e-20,1.11036e-16,44.550682,1.480479e-16,1.480434e-16,0,0,0,0,0,0
3.390158,0.587148,-10.349554,1.891618e-12,0,0,1.891618e-12,-1.110223e-16,2.220446e-16,5.741608e-18,0,0,0,0,2.221435e-16,-1.111212e-16,1.666324e-16,-45.987309,2.221765e-16,1.959371e-16,0,0,0,0,0,0
1.451249,0.539857,-10.107712,1.891618e-12,0,0,1.891618e-12,0,4.440892e-16,2.003633e-17,0,0,0,0,4.449914e-16,-9.021624e-19,2.229468e-16,-47.578079,2.972623e-16,2.969621e-16,0,0,0,0,0,0
1.49854,0.539857,-10.194973,1.891618e-12,0,0,1.891618e-12,-2.220446e-16,2.220446e-16,4.467167e-17,0,0,0,0,2.264936e-16,-2.264936e-16,2.264936e-16,-50.687553,3.019915e-16,2.615323e-16,0,0,0,0,0,0
1.54583,0.539857,-10.29127,1.891618e-12,0,0,1.891618e-12,-2.220446e-16,0,5.829351e-18,0,0,0,0,1.52933e-19,-2.221975e-16,1.111752e-16,-46.502811,1.482337e-16,1.481827e-16,0,0,0,0,0,0
1.593121,0.539857,-10.368001,1.891618e-12,0,0,1.891618e-12,2.220446e-16,-1.110223e-16,-2.467844e-17,0,0,0,0,2.238632e-16,-1.128409e-16,1.683521e-16,40.785366,2.244694e-16,1.978874e-16,0,0,0,0,0,0
1.640411,0.539857,-10.4302,1.891618e-12,0,0,1.891618e-12,0,-1.110223e-16,1.956237e-17,0,0,0,0,3.346083e-18,-1.143684e-16,5.885724e-17,54.706337,7.847631e-17,7.738507e-17,0,0,0,0,0,0
1.687701,0.539857,-10.484208,1.891618e-12,0,0,1.891618e-12,-3.330669e-16,-2.220446e-16,-1.633995e-17,0,0,0,0,-2.196897e-16,-3.354218e-16,5.786607e-17,-36.798992,7.715476e-17,1.967318e-16,0,0,0,0,0,0
1.734992,0.539857,-10.535176,1.891618e-12,0,0,1.891618e-12,-3.330669e-16,-1.110223e-16,9.551077e-18,0,0,0,0,-1.106122e-16,-3.33477e-16,1.114324e-16,-47.458481,1.485765e-16,1.961352e-16,0,0,0,0,0,0
1.782282,0.539857,-10.582938,1.891618e-12,0,0,1.891618e-12,-3.330669e-16,0,5.056421e-20,0,0,0,0,7.676354e-24,-3.330669e-16,1.665335e-16,-45.008698,2.220446e-16,2.220446e-16,0,0,0,0,0,0
1.829573,0.539857,-10.626198,1.891618e-12,0,0,1.891618e-12,0,-1.110223e-16,4.899498e-17,0,0,0,0,1.852935e-17,-1.295517e-16,7.40405e-17,65.716057,9.872066e-17,9.31605e-17,0,0,0,0,0,0
1.876863,0.539857,-10.662654,1.891618e-12,0,0,1.891618e-12,2.220446e-16,0,-9.981875e-18,0,0,0,0,2.224924e-16,-4.478257e-19,1.114701e-16,42.43121,1.486268e-16,1.484778e-16,0,0,0,0,0,0
1.924154,0.539857,-10.692817,1.891618e-12,0,0,1.891618e-12,2.220446e-16,-1.110223e-16,3.125487e-17,0,0,0,0,2.249522e-16,-1.139299e-16,1.69441e-16,50.314789,2.259214e-16,1.991228e-16,0,0,0,0,0,0
1.971444,0.539857,-10.719511,1.891618e-12,0,0,1.891618e-12,2.220446e-16,0,4.652374e-17,0,0,0,0,2.313984e-16,-9.353816e-18,1.203761e-16,56.368027,1.605015e-16,1.574762e-16,0,0,0,0,0,0
2.018735,0.539857,-10.744467,1.891618e-12,0,0,1.891618e-12,-1.110223e-16,0,6.487912e-18,0,0,0,0,3.77854e-19,-1.114002e-16,5.588901e-17,-48.333122,7.451868e-17,7.439304e-17,0,0,0,0,0,0
2.066025,0.539857,-10.767214,1.891618e-12,0,0,1.891618e-12,2.220446e-16,-2.220446e-16,2.394487e-19,0,0,0,0,2.220447e-16,-2.220447e-16,2.220447e-16,45.030895,2.960596e-16,2.563952e-16,0,0,0,0,0,0
2.113316,0.539857,-10.786932,1.891618e-12,0,0,1.891618e-12,0,-1.110223e-16,1.963426e-19,0,0,0,0,3.472302e-22,-1.110226e-16,5.55115e-17,45.101326,7.401533e-17,7.401521e-17,0,0,0,0,0,0
2.160606,0.539857,-10.803098,1.891618e-12,0,0,1.891618e-12,-2.220446e-16,2.220446e-16,1.810638e-17,0,0,0,0,2.227816e-16,-2.227816e-16,2.227816e-16,-47.330902,2.970421e-16,2.572461e-16,0,0,0,0,0,0
2.207896,0.539857,-10.816588,1.891618e-12,0,0,1.891618e-12,0,0,8.143171e-18,0,0,0,0,8.143171e-18,-8.143171e-18,8.143171e-18,90,1.085756e-17,9.402924e-18,0,0,0,0,0,0
2.255187,0.539857,-10.8285,1.891618e-12,0,0,1.891618e-12,2.220446e-16,0,-8.817886e-18,0,0,0,0,2.223942e-16,-3.496274e-19,1.113719e-16,42.729424,1.484959e-16,1.483795e-16,0,0,0,0,0,0
2.302477,0.539857,-10.838099,1.891618e-12,0,0,1.891618e-12,4.440892e-16,0,-4.946259e-17,0,0,0,0,4.495317e-16,-5.442437e-18,2.27487e-16,38.720924,3.033161e-16,3.015183e-16,0,0,0,0,0,0
2.349768,0.539857,-10.844768,1.891618e-12,0,0,1.891618e-12,0,0,1.742764e-17,0,0,0,0,1.742764e-17,-1.742764e-17,1.742764e-17,90,2.323685e-17,2.01237e-17,0,0,0,0,0,0
2.397058,0.539857,-10.848476,1.891618e-12,0,0,1.891618e-12,2.220446e-16,-1.110223e-16,-1.279438e-17,0,0,0,0,2.225354e-16,-1.115131e-16,1.670242e-16,42.803364,2.226989e-16,1.963814e-16,0,0,0,0,0,0
2.444349,0.539857,-10.850269,1.891618e-12,0,0,1.891618e-12,0,-1.110223e-16,1.265262e-17,0,0,0,0,1.423694e-18,-1.12446e-16,5.693485e-17,51.420017,7.591312e-17,7.544304e-17,0,0,0,0,0,0
2.491639,0.539857,-10.850524,1.891618e-12,0,0,1.891618e-12,-1.110223e-16,2.220446e-16,3.219083e-17,0,0,0,0,2.251273e-16,-1.14105e-16,1.696162e-16,-50.470158,2.261549e-16,1.993215e-16,0,0,0,0,0,0
2.53893,0.539857,-10.849236,1.891618e-12,0,0,1.891618e-12,0,2.220446e-16,2.235183e-17,0,0,0,0,2.242723e-16,-2.227668e-18,1.1325e-16,-50.691521,1.51e-16,1.502629e-16,0,0,0,0,0,0
2.58622,0.539857,-10.845616,1.891618e-12,0,0,1.891618e-12,0,0,-3.549979e-17,0,0,0,0,3.549979e-17,-3.549979e-17,3.549979e-17,0,4.733305e-17,4.099162e-17,0,0,0,0,0,0
2.633511,0.539857,-10.840625,1.891618e-12,0,0,1.891618e-12,4.440892e-16,0,1.320479e-17,0,0,0,0,4.444815e-16,-3.922916e-19,2.224369e-16,46.70166,2.965825e-16,2.964518e-16,0,0,0,0,0,0
2.680801,0.539857,-10.835668,1.891618e-12,0,0,1.891618e-12,-2.220446e-16,0,2.418952e-17,0,0,0,0,2.60465e-18,-2.246493e-16,1.13627e-16,-51.145748,1.515026e-16,1.506419e-16,0,0,0,0,0,0
2.728091,0.539857,-10.830715,1.891618e-12,0,0,1.891618e-12,0,-1.110223e-16,-6.167743e-17,0,0,0,0,2.746832e-17,-1.384906e-16,8.297947e-17,20.993982,1.106393e-16,1.027148e-16,0,0,0,0,0,0
2.775382,0.539857,-10.823831,1.891618e-12,0,0,1.891618e-12,2.220446e-16,0,2.500842e-17,0,0,0,0,2.248264e-16,-2.781796e-18,1.138041e-16,51.347168,1.517388e-16,1.508201e-16,0,0,0,0,0,0
2.822672,0.539857,-10.811817,1.891618e-12,0,0,1.891618e-12,-3.330669e-16,-1.110223e-16,-3.744579e-17,0,0,0,0,-1.048775e-16,-3.392117e-16,1.171671e-16,-35.680847,1.562229e-16,2.005417e-16,0,0,0,0,0,0
2.869963,0.539857,-10.79398,1.891618e-12,0,0,1.891618e-12,2.220446e-16,2.220446e-16,-2.927446e-18,0,0,0,0,2.249721e-16,2.191172e-16,2.927446e-18,0,3.903262e-18,1.480683e-16,0,0,0,0,0,0
2.917253,0.539857,-10.771156,1.891618e-12,0,0,1.891618e-12,0,-1.110223e-16,-3.904322e-17,0,0,0,0,1.235534e-17,-1.233776e-16,6.786649e-17,27.439873,9.048866e-17,8.666428e-17,0,0,0,0,0,0
2.964544,0.539857,-10.746038,1.891618e-12,0,0,1.891618e-12,0,2.220446e-16,1.094971e-17,0,0,0,0,2.225833e-16,-5.386576e-19,1.11561e-16,-47.816326,1.487479e-16,1.485687e-16,0,0,0,0,0,0
3.011834,0.539857,-10.719461,1.891618e-12,0,0,1.891618e-12,-1.110223e-16,-1.110223e-16,9.464016e-18,0,0,0,0,-1.015583e-16,-1.204863e-16,9.464016e-18,90,1.261869e-17,7.481727e-17,0,0,0,0,0,0
3.059125,0.539857,-10.691425,1.891618e-12,0,0,1.891618e-12,-1.110223e-16,-1.110223e-16,-6.460611e-18,0,0,0,0,-1.045617e-16,-1.174829e-16,6.460611e-18,0,8.614149e-18,7.438987e-17,0,0,0,0,0,0
3.106415,0.539857,-10.661524,1.891618e-12,0,0,1.891618e-12,0,0,9.442285e-18,0,0,0,0,9.442285e-18,-9.442285e-18,9.442285e-18,90,1.258971e-17,1.090301e-17,0,0,0,0,0,0
3.153705,0.539857,-10.628389,1.891618e-12,0,0,1.891618e-12,0,2.220446e-16,-4.211541e-17,0,0,0,0,2.297643e-16,-7.719683e-18,1.18742e-16,-34.613083,1.583226e-16,1.558132e-16,0,0,0,0,0,0
3.200996,0.539857,-10.590269,1.891618e-12,0,0,1.891618e-12,2.220446e-16,-4.440892e-16,7.405937e-18,0,0,0,0,2.221269e-16,-4.441715e-16,3.331492e-16,45.636898,4.44199e-16,3.917432e-16,0,0,0,0,0,0
3.248286,0.539857,-10.544801,1.891618e-12,0,0,1.891618e-12,4.440892e-16,0,-5.099764e-18,0,0,0,0,4.441478e-16,-5.855617e-20,2.221032e-16,44.342152,2.961375e-16,2.96118e-16,0,0,0,0,0,0
3.295577,0.539857,-10.488886,1.891618e-12,0,0,1.891618e-12,-1.110223e-16,2.220446e-16,4.709523e-17,0,0,0,0,2.285757e-16,-1.175534e-16,1.730646e-16,-52.895382,2.307528e-16,2.032356e-16,0,0,0,0,0,0
3.342867,0.539857,-10.419541,1.891618e-12,0,0,1.891618e-12,0,-1.110223e-16,-1.651584e-17,0,0,0,0,2.404831e-18,-1.134271e-16,5.791598e-17,36.715523,7.722131e-17,7.643231e-17,0,0,0,0,0,0
3.390158,0.539857,-10.359215,1.891618e-12,0,0,1.891618e-12,2.220446e-16,0,4.01775e-17,0,0,0,0,2.290909e-16,-7.04625e-18,1.180686e-16,54.947258,1.574247e-16,1.551293e-16,0,0,0,0,0,0
1.451249,0.492567,-10.111387,1.891618e-12,0,0,1.891618e-12,-2.220446e-16,2.220446e-16,1.264597e-17,0,0,0,0,2.224044e-16,-2.224044e-16,2.224044e-16,-46.629807,2.965392e-16,2.568105e-16,0,0,0,0,0,0
1.49854,0.492567,-10.197216,1.891618e-12,0,0,1.891618e-12,-2.220446e-16,-1.110223e-16,2.485369e-17,0,0,0,0,-1.057125e-16,-2.273544e-16,6.0821e-17,-57.059608,8.109466e-17,1.313705e-16,0,0,0,0,0,0
1.54583,0.492567,-10.292133,1.891618e-12,0,0,1.891618e-12,0,0,-9.885947e-18,0,0,0,0,9.885947e-18,-9.885947e-18,9.885947e-18,0,1.318126e-17,1.141531e-17,0,0,0,0,0,0
1.593121,0.492567,-10.3688,1.891618e-12,0,0,1.891618e-12,0,0,2.908804e-17,0,0,0,0,2.908804e-17,-2.908804e-17,2.908804e-17,90,3.878406e-17,3.358798e-17,0,0,0,0,0,0
1.640411,0.492567,-10.432064,1.891618e-12,0,0,1.891618e-12,-1.110223e-16,0,1.724808e-18,0,0,0,0,2.678962e-20,-1.110491e-16,5.553794e-17,-45.889843,7.405058e-17,7.404166e-17,0,0,0,0,0,0
1.687701,0.492567,-10.486878,1.891618e-12,0,0,1.891618e-12,-3.330669e-16,2.220446e-16,-4.154662e-17,0,0,0,0,2.251369e-16,-3.361592e-16,2.80648e-16,-40.743374,3.741974e-16,3.261707e-16,0,0,0,0,0,0
1.734992,0.492567,-10.537763,1.891618e-12,0,0,1.891618e-12,-2.220446e-16,2.220446e-16,-3.478404e-17,0,0,0,0,2.247526e-16,-2.247526e-16,2.247526e-16,-40.548389,2.996701e-16,2.595219e-16,0,0,0,0,0,0
1.782282,0.492567,-10.58473,1.891618e-12,0,0,1.891618e-12,4.440892e-16,-1.110223e-16,-9.601289e-18,0,0,0,0,4.442552e-16,-1.111883e-16,2.777218e-16,44.009399,3.702957e-16,3.393599e-16,0,0,0,0,0,0
1.829573,0.492567,-10.626952,1.891618e-12,0,0,1.891618e-12,-2.220446e-16,0,1.641947e-17,0,0,0,0,1.207598e-18,-2.232522e-16,1.122299e-16,-49.206345,1.496399e-16,1.49239e-16,0,0,0,0,0,0
1.876863,0.492567,-10.662965,1.891618e-12,0,0,1.891618e-12,2.220446e-16,-1.110223e-16,-1.087208e-17,0,0,0,0,2.223991e-16,-1.113768e-16,1.66888e-16,43.132381,2.225173e-16,1.962269e-16,0,0,0,0,0,0
1.924154,0.492567,-10.693547,1.891618e-12,0,0,1.891618e-12,0,2.220446e-16,3.601106e-17,0,0,0,0,2.277388e-16,-5.694227e-18,1.167165e-16,-53.985462,1.55622e-16,1.537591e-16,0,0,0,0,0,0
1.971444,0.492567,-10.721084,1.891618e-12,0,0,1.891618e-12,0,2.220446e-16,-5.294688e-17,0,0,0,0,2.340236e-16,-1.197901e-17,1.230013e-16,-32.25169,1.640018e-16,1.601582e-16,0,0,0,0,0,0
2.018735,0.492567,-10.746753,1.891618e-12,0,0,1.891618e-12,0,2.220446e-16,-5.535926e-18,0,0,0,0,2.221825e-16,-1.379338e-19,1.111602e-16,-43.572708,1.482137e-16,1.481677e-16,0,0,0,0,0,0
2.066025,0.492567,-10.769681,1.891618e-12,0,0,1.891618e-12,2.220446e-16,2.220446e-16,-1.415099e-17,0,0,0,0,2.361956e-16,2.078936e-16,1.415099e-17,0,1.886798e-17,1.489289e-16,0,0,0,0,0,0
2.113316,0.492567,-10.789665,1.891618e-12,0,0,1.891618e-12,-1.110223e-16,-4.440892e-16,-3.467872e-17,0,0,0,0,-1.074499e-16,-4.476616e-16,1.701059e-16,39.11845,2.268078e-16,2.69852e-16,0,0,0,0,0,0
2.160606,0.492567,-10.806562,1.891618e-12,0,0,1.891618e-12,2.220446e-16,0,-8.837558e-18,0,0,0,0,2.223958e-16,-3.511867e-19,1.113735e-16,42.72438,1.48498e-16,1.483811e-16,0,0,0,0,0,0
2.207896,0.492567,-10.821093,1.891618e-12,0,0,1.891618e-12,-2.220446e-16,2.220446e-16,3.345924e-18,0,0,0,0,2.220698e-16,-2.220698e-16,2.220698e-16,-45.431652,2.960931e-16,2.564241e-16,0,0,0,0,0,0
2.255187,0.492567,-10.833442,1.891618e-12,0,0,1.891618e-12,2.220446e-16,2.220446e-16,-6.768261e-18,0,0,0,0,2.288129e-16,2.152763e-16,6.768261e-18,0,9.024348e-18,1.482359e-16,0,0,0,0,0,0
2.302477,0.492567,-10.842062,1.891618e-12,0,0,1.891618e-12,0,2.220446e-16,-5.755799e-17,0,0,0,0,2.360778e-16,-1.403318e-17,1.250555e-16,-31.298067,1.667406e-16,1.622653e-16,0,0,0,0,0,0
2.349768,0.492567,-10.846905,1.891618e-12,0,0,1.891618e-12,0,2.220446e-16,-1.433431e-17,0,0,0,0,2.229662e-16,-9.215413e-19,1.119438e-16,-41.321564,1.492585e-16,1.489522e-16,0,0,0,0,0,0
2.397058,0.492567,-10.848911,1.891618e-12,0,0,1.891618e-12,0,2.220446e-16,1.874438e-17,0,0,0,0,2.236158e-16,-1.57123e-18,1.125935e-16,-49.791561,1.501247e-16,1.496037e-16,0,0,0,0,0,0
2.444349,0.492567,-10.849805,1.891618e-12,0,0,1.891618e-12,-1.110223e-16,-1.110223e-16,-7.708879e-19,0,0,0,0,-1.102514e-16,-1.117932e-16,7.708879e-19,0,1.02785e-18,7.402022e-17,0,0,0,0,0,0
2.491639,0.492567,-10.850149,1.891618e-12,0,0,1.891618e-12,0,-1.110223e-16,-1.029104e-17,0,0,0,0,9.45854e-19,-1.119682e-16,5.6457e-17,39.748672,7.527601e-17,7.496271e-17,0,0,0,0,0,0
2.53893,0.492567,-10.849306,1.891618e-12,0,0,1.891618e-12,2.220446e-16,0,2.026522e-17,0,0,0,0,2.23879e-16,-1.834381e-18,1.128567e-16,50.172241,1.504756e-16,1.498679e-16,0,0,0,0,0,0
2.58622,0.492567,-10.846079,1.891618e-12,0,0,1.891618e-12,0,2.220446e-16,-4.679007e-18,0,0,0,0,2.221432e-16,-9.855404e-20,1.111209e-16,-43.793358,1.481611e-16,1.481283e-16,0,0,0,0,0,0
2.633511,0.492567,-10.8416,1.891618e-12,0,0,1.891618e-12,2.220446e-16,0,1.84084e-17,0,0,0,0,2.235604e-16,-1.515783e-18,1.125381e-16,49.707226,1.500508e-16,1.495481e-16,0,0,0,0,0,0
2.680801,0.492567,-10.837363,1.891618e-12,0,0,1.891618e-12,2.220446e-16,2.220446e-16,-1.20986e-17,0,0,0,0,2.341432e-16,2.09946e-16,1.20986e-17,0,1.613147e-17,1.486875e-16,0,0,0,0,0,0
2.728091,0.492567,-10.833171,1.891618e-12,0,0,1.891618e-12,0,0,7.665333e-18,0,0,0,0,7.665333e-18,-7.665333e-18,7.665333e-18,90,1.022044e-17,8.851164e-18,0,0,0,0,0,0
2.775382,0.492567,-10.826614,1.891618e-12,0,0,1.891618e-12,-2.220446e-16,-2.220446e-16,1.776498e-17,0,0,0,0,-2.042796e-16,-2.398096e-16,1.776498e-17,90,2.368664e-17,1.494443e-16,0,0,0,0,0,0
2.822672,0.492567,-10.814534,1.891618e-12,0,0,1.891618e-12,2.220446e-16,2.220446e-16,1.707148e-17,0,0,0,0,2.391161e-16,2.049731e-16,1.707148e-17,90,2.276198e-17,1.493365e-16,0,0,0,0,0,0
2.869963,0.492567,-10.796421,1.891618e-12,0,0,1.891618e-12,0,-1.110223e-16,1.536624e-18,0,0,0,0,2.126384e-20,-1.110436e-16,5.553241e-17,45.792809,7.404322e-17,7.403613e-17,0,0,0,0,0,0
2.917253,0.492567,-10.773673,1.891618e-12,0,0,1.891618e-12,0,0,2.317634e-18,0,0,0,0,2.317634e-18,-2.317634e-18,2.317634e-18,90,3.090179e-18,2.676173e-18,0,0,0,0,0,0
2.964544,0.492567,-10.749376,1.891618e-12,0,0,1.891618e-12,0,-1.110223e-16,-6.287156e-17,0,0,0,0,2.835971e-17,-1.39382e-16,8.387087e-17,20.721115,1.118278e-16,1.036757e-16,0,0,0,0,0,0
3.011834,0.492567,-10.724264,1.891618e-12,0,0,1.891618e-12,0,-2.220446e-16,6.379793e-17,0,0,0,0,1.702506e-17,-2.390697e-16,1.280474e-16,59.941715,1.707298e-16,1.653472e-16,0,0,0,0,0,0
3.059125,0.492567,-10.697906,1.891618e-12,0,0,1.891618e-12,2.220446e-16,2.220446e-16,-1.720554e-17,0,0,0,0,2.392501e-16,2.048391e-16,1.720554e-17,0,2.294072e-17,1.49357e-16,0,0,0,0,0,0
3.106415,0.492567,-10.669458,1.891618e-12,0,0,1.891618e-12,2.220446e-16,0,-8.644411e-19,0,0,0,0,2.22048e-16,-3.365302e-21,1.110257e-16,44.776947,1.480342e-16,1.480331e-16,0,0,0,0,0,0
3.153705,0.492567,-10.637118,1.891618e-12,0,0,1.891618e-12,2.220446e-16,-1.110223e-16,-8.05299e-18,0,0,0,0,2.222392e-16,-1.112169e-16,1.66728e-16,43.615765,2.223041e-16,1.960456e-16,0,0,0,0,0,0
3.200996,0.492567,-10.598643,1.891618e-12,0,0,1.891618e-12,0,-1.110223e-16,-1.503566e-17,0,0,0,0,2.00023e-18,-1.130225e-16,5.751138e-17,37.422298,7.668184e-17,7.602387e-17,0,0,0,0,0,0
3.248286,0.492567,-10.552801,1.891618e-12,0,0,1.891618e-12,-2.220446e-16,4.440892e-16,3.586501e-17,0,0,0,0,4.460146e-16,-2.2397e-16,3.349923e-16,-48.072994,4.466565e-16,3.938333e-16,0,0,0,0,0,0
3.295577,0.492567,-10.496733,1.891618e-12,0,0,1.891618e-12,2.220446e-16,2.220446e-16,2.410145e-17,0,0,0,0,2.461461e-16,1.979432e-16,2.410145e-17,90,3.213527e-17,1.506231e-16,0,0,0,0,0,0
3.342867,0.492567,-10.426212,1.891618e-12,0,0,1.891618e-12,2.220446e-16,-2.220446e-16,2.748742e-17,0,0,0,0,2.237395e-16,-2.237395e-16,2.237395e-16,48.528439,2.983193e-16,2.583521e-16,0,0,0,0,0,0
3.390158,0.492567,-10.365148,1.891618e-12,0,0,1.891618e-12,2.220446e-16,0,3.877995e-17,0,0,0,0,2.286226e-16,-6.578022e-18,1.176003e-16,54.627121,1.568004e-16,1.546544e-16,0,0,0,0,0,0
1.451249,0.445276,-10.117107,1.891618e-12,0,0,1.891618e-12,-2.220446e-16,0,8.693852e-18,0,0,0,0,3.398756e-19,-2.223845e-16,1.113622e-16,-47.23877,1.484829e-16,1.483697e-16,0,0,0,0,0,0
1.49854,0.445276,-10.201377,1.891618e-12,0,0,1.891618e-12,2.220446e-16,0,1.025922e-17,0,0,0,0,2.225176e-16,-4.730035e-19,1.114953e-16,47.639763,1.486604e-16,1.48503e-16,0,0,0,0,0,0
1.54583,0.445276,-10.295237,1.891618e-12,0,0,1.891618e-12,-1.110223e-16,-1.110223e-16,-4.503123e-17,0,0,0,0,-6.599108e-17,-1.560535e-16,4.503123e-17,0,6.004163e-17,9.045413e-17,0,0,0,0,0,0
1.593121,0.445276,-10.372076,1.891618e-12,0,0,1.891618e-12,0,0,7.416879e-18,0,0,0,0,7.416879e-18,-7.416879e-18,7.416879e-18,90,9.889173e-18,8.564275e-18,0,0,0,0,0,0
1.640411,0.445276,-10.436134,1.891618e-12,0,0,1.891618e-12,2.220446e-16,-1.110223e-16,4.535267e-17,0,0,0,0,2.281097e-16,-1.170874e-16,1.725985e-16,52.617062,2.301314e-16,2.027064e-16,0,0,0,0,0,0
1.687701,0.445276,-10.491808,1.891618e-12,0,0,1.891618e-12,0,0,-1.463415e-17,0,0,0,0,1.463415e-17,-1.463415e-17,1.463415e-17,0,1.95122e-17,1.689806e-17,0,0,0,0,0,0
1.734992,0.445276,-10.543063,1.891618e-12,0,0,1.891618e-12,2.220446e-16,-1.110223e-16,2.964721e-17,0,0,0,0,2.24663e-16,-1.136407e-16,1.691518e-16,50.04718,2.255358e-16,1.987947e-16,0,0,0,0,0,0
1.782282,0.445276,-10.590164,1.891618e-12,0,0,1.891618e-12,-5.551115e-16,2.220446e-16,-3.334357e-17,0,0,0,0,2.234726e-16,-5.565395e-16,3.90006e-16,-42.547756,5.20008e-16,4.638235e-16,0,0,0,0,0,0
1.829573,0.445276,-10.632174,1.891618e-12,0,0,1.891618e-12,-2.220446e-16,2.220446e-16,5.262015e-18,0,0,0,0,2.221069e-16,-2.221069e-16,2.221069e-16,-45.678772,2.961426e-16,2.56467e-16,0,0,0,0,0,0
1.876863,0.445276,-10.667918,1.891618e-12,0,0,1.891618e-12,-4.440892e-16,2.220446e-16,-2.039975e-17,0,0,0,0,2.226687e-16,-4.447134e-16,3.33691e-16,-43.247559,4.449214e-16,3.923576e-16,0,0,0,0,0,0
1.924154,0.445276,-10.698327,1.891618e-12,0,0,1.891618e-12,0,0,-1.152131e-17,0,0,0,0,1.152131e-17,-1.152131e-17,1.152131e-17,0,1.536174e-17,1.330366e-17,0,0,0,0,0,0
1.971444,0.445276,-10.725778,1.891618e-12,0,0,1.891618e-12,2.220446e-16,0,2.825637e-17,0,0,0,0,2.25584e-16,-3.539358e-18,1.145617e-16,52.139614,1.527489e-16,1.515829e-16,0,0,0,0,0,0
2.018735,0.445276,-10.750858,1.891618e-12,0,0,1.891618e-12,-1.110223e-16,2.220446e-16,3.8792e-17,0,0,0,0,2.26503e-16,-1.154807e-16,1.709918e-16,-51.556274,2.279891e-16,2.008826e-16,0,0,0,0,0,0
2.066025,0.445276,-10.773138,1.891618e-12,0,0,1.891618e-12,-1.110223e-16,-1.110223e-16,-4.64162e-17,0,0,0,0,-6.46061e-17,-1.574385e-16,4.64162e-17,0,6.188826e-17,9.138282e-17,0,0,0,0,0,0
2.113316,0.445276,-10.793036,1.891618e-12,0,0,1.891618e-12,0,0,2.735863e-17,0,0,0,0,2.735863e-17,-2.735863e-17,2.735863e-17,90,3.647817e-17,3.159102e-17,0,0,0,0,0,0
2.160606,0.445276,-10.810853,1.891618e-12,0,0,1.891618e-12,-1.110223e-16,-2.220446e-16,-3.992487e-17,0,0,0,0,-9.815594e-17,-2.34911e-16,6.837751e-17,27.13773,9.117001e-17,1.362348e-16,0,0,0,0,0,0
2.207896,0.445276,-10.826794,1.891618e-12,0,0,1.891618e-12,-1.110223e-16,2.220446e-16,2.126675e-17,0,0,0,0,2.23397e-16,-1.123747e-16,1.678859e-16,-48.638714,2.238478e-16,1.973587e-16,0,0,0,0,0,0
2.255187,0.445276,-10.839626,1.891618e-12,0,0,1.891618e-12,2.220446e-16,4.440892e-16,4.076221e-17,0,0,0,0,4.513357e-16,2.147981e-16,1.182688e-16,-55.080441,1.576917e-16,2.606795e-16,0,0,0,0,0,0
2.302477,0.445276,-10.847282,1.891618e-12,0,0,1.891618e-12,2.220446e-16,0,1.610153e-17,0,0,0,0,2.232061e-16,-1.161524e-18,1.121838e-16,49.126026,1.495784e-16,1.491928e-16,0,0,0,0,0,0
2.349768,0.445276,-10.850669,1.891618e-12,0,0,1.891618e-12,2.220446e-16,0,-3.894858e-17,0,0,0,0,2.286783e-16,-6.633736e-18,1.17656e-16,35.334114,1.568747e-16,1.547109e-16,0,0,0,0,0,0
2.397058,0.445276,-10.851726,1.891618e-12,0,0,1.891618e-12,0,2.220446e-16,2.13836e-17,0,0,0,0,2.240852e-16,-2.040556e-18,1.130629e-16,-50.451015,1.507505e-16,1.500749e-16,0,0,0,0,0,0
2.444349,0.445276,-10.852447,1.891618e-12,0,0,1.891618e-12,0,0,3.732058e-18,0,0,0,0,3.732058e-18,-3.732058e-18,3.732058e-18,90,4.976077e-18,4.309409e-18,0,0,0,0,0,0
2.491639,0.445276,-10.852839,1.891618e-12,0,0,1.891618e-12,2.220446e-16,0,1.047812e-17,0,0,0,0,2.22538e-16,-4.933582e-19,1.115157e-16,47.695759,1.486875e-16,1.485234e-16,0,0,0,0,0,0
2.53893,0.445276,-10.851861,1.891618e-12,0,0,1.891618e-12,0,2.220446e-16,1.912055e-17,0,0,0,0,2.236791e-16,-1.634464e-18,1.126568e-16,-49.885883,1.50209e-16,1.496672e-16,0,0,0,0,0,0
2.58622,0.445276,-10.848194,1.891618e-12,0,0,1.891618e-12,0,2.220446e-16,1.970333e-17,0,0,0,0,2.237794e-16,-1.734838e-18,1.127571e-16,-50.031799,1.503429e-16,1.497679e-16,0,0,0,0,0,0
2.633511,0.445276,-10.843403,1.891618e-12,0,0,1.891618e-12,0,2.220446e-16,8.711736e-18,0,0,0,0,2.223859e-16,-3.412732e-19,1.113636e-16,-47.243355,1.484848e-16,1.483711e-16,0,0,0,0,0,0
2.680801,0.445276,-10.839039,1.891618e-12,0,0,1.891618e-12,-1.110223e-16,0,-2.935145e-17,0,0,0,0,7.282124e-18,-1.183044e-16,6.279328e-17,-31.066206,8.372437e-17,8.140564e-17,0,0,0,0,0,0
2.728091,0.445276,-10.834573,1.891618e-12,0,0,1.891618e-12,2.220446e-16,-1.110223e-16,-4.132735e-17,0,0,0,0,2.270959e-16,-1.160736e-16,1.715848e-16,38.031445,2.287797e-16,2.015556e-16,0,0,0,0,0,0
2.775382,0.445276,-10.827404,1.891618e-12,0,0,1.891618e-12,4.440892e-16,0,-2.477363e-18,0,0,0,0,4.44103e-16,-1.381961e-20,2.220584e-16,44.680386,2.960779e-16,2.960733e-16,0,0,0,0,0,0
2.822672,0.445276,-10.814786,1.891618e-12,0,0,1.891618e-12,2.220446e-16,-1.110223e-16,1.521716e-17,0,0,0,0,2.227384e-16,-1.117161e-16,1.672273e-16,47.610481,2.229697e-16,1.966117e-16,0,0,0,0,0,0
2.869963,0.445276,-10.796278,1.891618e-12,0,0,1.891618e-12,-1.110223e-16,2.220446e-16,-1.18913e-17,0,0,0,0,2.224686e-16,-1.114463e-16,1.669575e-16,-42.957867,2.226099e-16,1.963057e-16,0,0,0,0,0,0
2.917253,0.445276,-10.773646,1.891618e-12,0,0,1.891618e-12,0,2.220446e-16,3.408999e-17,0,0,0,0,2.271605e-16,-5.115888e-18,1.161382e-16,-53.534691,1.548509e-16,1.531741e-16,0,0,0,0,0,0
2.964544,0.445276,-10.749871,1.891618e-12,0,0,1.891618e-12,0,0,2.363911e-17,0,0,0,0,2.363911e-17,-2.363911e-17,2.363911e-17,90,3.151881e-17,2.729609e-17,0,0,0,0,0,0
3.011834,0.445276,-10.725564,1.891618e-12,0,0,1.891618e-12,-2.220446e-16,2.220446e-16,2.56822e-17,0,0,0,0,2.235249e-16,-2.235249e-16,2.235249e-16,-48.298824,2.980332e-16,2.581043e-16,0,0,0,0,0,0
3.059125,0.445276,-10.699897,1.891618e-12,0,0,1.891618e-12,0,0,1.261486e-17,0,0,0,0,1.261486e-17,-1.261486e-17,1.261486e-17,90,1.681982e-17,1.456639e-17,0,0,0,0,0,0
3.106415,0.445276,-10.672068,1.891618e-12,0,0,1.891618e-12,0,2.220446e-16,5.976073e-18,0,0,0,0,2.222053e-16,-1.607227e-19,1.11183e-16,-46.540562,1.48244e-16,1.481905e-16,0,0,0,0,0,0
3.153705,0.445276,-10.640294,1.891618e-12,0,0,1.891618e-12,2.220446e-16,-2.220446e-16,-2.142083e-17,0,0,0,0,2.230754e-16,-2.230754e-16,2.230754e-16,42.244839,2.97434e-16,2.575853e-16,0,0,0,0,0,0
3.200996,0.445276,-10.602287,1.891618e-12,0,0,1.891618e-12,0,2.220446e-16,1.727213e-17,0,0,0,0,2.233801e-16,-1.33551e-18,1.123578e-16,-49.42141,1.498104e-16,1.493672e-16,0,0,0,0,0,0
3.248286,0.445276,-10.556694,1.891618e-12,0,0,1.891618e-12,0,-1.110223e-16,-6.481904e-17,0,0,0,0,2.982932e-17,-1.408516e-16,8.534047e-17,20.288406,1.137873e-16,1.052626e-16,0,0,0,0,0,0
3.295577,0.445276,-10.500771,1.891618e-12,0,0,1.891618e-12,2.220446e-16,2.220446e-16,-5.461087e-17,0,0,0,0,2.766555e-16,1.674337e-16,5.461087e-17,0,7.281449e-17,1.609014e-16,0,0,0,0,0,0
3.342867,0.445276,-10.429691,1.891618e-12,0,0,1.891618e-12,0,-1.110223e-16,6.808455e-17,0,0,0,0,3.233527e-17,-1.433576e-16,8.784642e-17,70.404358,1.171286e-16,1.079763e-16,0,0,0,0,0,0
3.390158,0.445276,-10.368595,1.891618e-12,0,0,1.891618e-12,4.440892e-16,2.220446e-16,-1.539994e-17,0,0,0,0,4.451522e-16,2.209816e-16,1.120853e-16,41.051437,1.49447e-16,2.570109e-16,0,0,0,0,0,0
1.451249,0.397986,-10.122605,1.891618e-12,0,0,1.891618e-12,-2.220446e-16,2.220446e-16,-1.212387e-17,0,0,0,0,2.223753e-16,-2.223753e-16,2.223753e-16,-43.437347,2.965005e-16,2.567769e-16,0,0,0,0,0,0
1.49854,0.397986,-10.206015,1.891618e-12,0,0,1.891618e-12,2.220446e-16,2.220446e-16,1.784058e-17,0,0,0,0,2.398852e-16,2.04204e-16,1.784058e-17,90,2.378743e-17,1.494563e-16,0,0,0,0,0,0
1.54583,0.397986,-10.299355,1.891618e-12,0,0,1.891618e-12,-1.110223e-16,-1.110223e-16,8.512933e-18,0,0,0,0,-1.025094e-16,-1.195352e-16,8.512933e-18,90,1.135058e-17,7.466477e-17,0,0,0,0,0,0
1.593121,0.397986,-10.376581,1.891618e-12,0,0,1.891618e-12,-3.330669e-16,-1.110223e-16,-2.401023e-17,0,0,0,0,-1.084557e-16,-3.356335e-16,1.135889e-16,-38.898434,1.514519e-16,1.977778e-16,0,0,0,0,0,0
1.640411,0.397986,-10.441072,1.891618e-12,0,0,1.891618e-12,0,2.220446e-16,-1.438857e-17,0,0,0,0,2.229731e-16,-9.285017e-19,1.119508e-16,-41.307793,1.492677e-16,1.489592e-16,0,0,0,0,0,0
1.687701,0.397986,-10.497517,1.891618e-12,0,0,1.891618e-12,2.220446e-16,-1.110223e-16,1.10832e-18,0,0,0,0,2.220483e-16,-1.11026e-16,1.665371e-16,45.190655,2.220495e-16,1.958291e-16,0,0,0,0,0,0
1.734992,0.397986,-10.549539,1.891618e-12,0,0,1.891618e-12,2.220446e-16,2.220446e-16,3.186307e-17,0,0,0,0,2.539077e-16,1.901815e-16,3.186307e-17,90,4.248409e-17,1.525335e-16,0,0,0,0,0,0
1.782282,0.397986,-10.597279,1.891618e-12,0,0,1.891618e-12,2.220446e-16,-2.220446e-16,4.082406e-17,0,0,0,0,2.257663e-16,-2.257663e-16,2.257663e-16,50.208893,3.010217e-16,2.606924e-16,0,0,0,0,0,0
1.829573,0.397986,-10.639624,1.891618e-12,0,0,1.891618e-12,0,2.220446e-16,-5.052114e-18,0,0,0,0,2.221595e-16,-1.148898e-19,1.111372e-16,-43.697266,1.481829e-16,1.481446e-16,0,0,0,0,0,0
1.876863,0.397986,-10.675329,1.891618e-12,0,0,1.891618e-12,2.220446e-16,0,-7.218755e-18,0,0,0,0,2.22279e-16,-2.344369e-19,1.112567e-16,43.139912,1.483423e-16,1.482642e-16,0,0,0,0,0,0
1.924154,0.397986,-10.705296,1.891618e-12,0,0,1.891618e-12,2.220446e-16,-2.220446e-16,3.615887e-17,0,0,0,0,2.249695e-16,-2.249695e-16,2.249695e-16,49.624573,2.999593e-16,2.597724e-16,0,0,0,0,0,0
1.971444,0.397986,-10.731789,1.891618e-12,0,0,1.891618e-12,0,2.220446e-16,3.082196e-18,0,0,0,0,2.220874e-16,-4.277564e-20,1.110651e-16,-45.795116,1.480868e-16,1.480725e-16,0,0,0,0,0,0
2.018735,0.397986,-10.755464,1.891618e-12,0,0,1.891618e-12,0,0,3.56924e-17,0,0,0,0,3.56924e-17,-3.56924e-17,3.56924e-17,90,4.758986e-17,4.121403e-17,0,0,0,0,0,0
2.066025,0.397986,-10.776893,1.891618e-12,0,0,1.891618e-12,2.220446e-16,-1.110223e-16,-3.246695e-18,0,0,0,0,2.220763e-16,-1.110539e-16,1.665651e-16,44.441559,2.220868e-16,1.958608e-16,0,0,0,0,0,0
2.113316,0.397986,-10.796906,1.891618e-12,0,0,1.891618e-12,-1.110223e-16,-1.110223e-16,-1.176281e-17,0,0,0,0,-9.925949e-17,-1.227851e-16,1.176281e-17,0,1.568375e-17,7.525082e-17,0,0,0,0,0,0
2.160606,0.397986,-10.81588,1.891618e-12,0,0,1.891618e-12,0,0,-1.751413e-17,0,0,0,0,1.751413e-17,-1.751413e-17,1.751413e-17,0,2.335218e-17,2.022358e-17,0,0,0,0,0,0
2.207896,0.397986,-10.83305,1.891618e-12,0,0,1.891618e-12,0,0,1.981644e-17,0,0,0,0,1.981644e-17,-1.981644e-17,1.981644e-17,90,2.642192e-17,2.288206e-17,0,0,0,0,0,0
2.255187,0.397986,-10.84599,1.891618e-12,0,0,1.891618e-12,-2.220446e-16,0,-1.187244e-18,0,0,0,0,6.347856e-21,-2.22051e-16,1.110287e-16,-44.693657,1.480382e-16,1.480361e-16,0,0,0,0,0,0
2.302477,0.397986,-10.852832,1.891618e-12,0,0,1.891618e-12,-1.110223e-16,2.220446e-16,-5.731722e-18,0,0,0,0,2.221432e-16,-1.111209e-16,1.666321e-16,-44.014389,2.221761e-16,1.959367e-16,0,0,0,0,0,0
2.349768,0.397986,-10.855427,1.891618e-12,0,0,1.891618e-12,2.220446e-16,0,2.152378e-17,0,0,0,0,2.241118e-16,-2.067151e-18,1.130895e-16,50.485882,1.507859e-16,1.501016e-16,0,0,0,0,0,0
2.397058,0.397986,-10.856237,1.891618e-12,0,0,1.891618e-12,2.220446e-16,-1.110223e-16,-2.819218e-17,0,0,0,0,2.24414e-16,-1.133917e-16,1.689029e-16,40.195793,2.252039e-16,1.985123e-16,0,0,0,0,0,0
2.444349,0.397986,-10.856977,1.891618e-12,0,0,1.891618e-12,0,2.220446e-16,-2.26849e-17,0,0,0,0,2.243385e-16,-2.293877e-18,1.133162e-16,-39.225929,1.510882e-16,1.503294e-16,0,0,0,0,0,0
2.491639,0.397986,-10.857024,1.891618e-12,0,0,1.891618e-12,0,0,1.142194e-17,0,0,0,0,1.142194e-17,-1.142194e-17,1.142194e-17,90,1.522926e-17,1.318893e-17,0,0,0,0,0,0
2.53893,0.397986,-10.855353,1.891618e-12,0,0,1.891618e-12,-2.220446e-16,0,7.085802e-18,0,0,0,0,2.258896e-19,-2.222705e-16,1.112482e-16,-46.825924,1.483309e-16,1.482557e-16,0,0,0,0,0,0
2.58622,0.397986,-10.850866,1.891618e-12,0,0,1.891618e-12,0,2.220446e-16,-4.596717e-18,0,0,0,0,2.221397e-16,-9.511942e-20,1.111174e-16,-43.814552,1.481566e-16,1.481249e-16,0,0,0,0,0,0
2.633511,0.397986,-10.845379,1.891618e-12,0,0,1.891618e-12,0,2.220446e-16,-1.170815e-18,0,0,0,0,2.220508e-16,-6.173394e-21,1.110285e-16,-44.697899,1.48038e-16,1.480359e-16,0,0,0,0,0,0
2.680801,0.397986,-10.840339,1.891618e-12,0,0,1.891618e-12,0,0,-2.522656e-17,0,0,0,0,2.522656e-17,-2.522656e-17,2.522656e-17,0,3.363542e-17,2.912913e-17,0,0,0,0,0,0
2.728091,0.397986,-10.834919,1.891618e-12,0,0,1.891618e-12,0,2.220446e-16,-6.312321e-18,0,0,0,0,2.222239e-16,-1.793029e-19,1.112016e-16,-43.372936,1.482688e-16,1.482091e-16,0,0,0,0,0,0
2.775382,0.397986,-10.826645,1.891618e-12,0,0,1.891618e-12,0,0,-6.923241e-17,0,0,0,0,6.923241e-17,-6.923241e-17,6.923241e-17,0,9.230988e-17,7.99427e-17,0,0,0,0,0,0
2.822672,0.397986,-10.813223,1.891618e-12,0,0,1.891618e-12,0,0,1.082426e-18,0,0,0,0,1.082426e-18,-1.082426e-18,1.082426e-18,90,1.443235e-18,1.249878e-18,0,0,0,0,0,0
2.869963,0.397986,-10.794393,1.891618e-12,0,0,1.891618e-12,2.220446e-16,4.440892e-16,-1.853956e-17,0,0,0,0,4.456265e-16,2.205073e-16,1.125596e-16,-40.259842,1.500795e-16,2.572872e-16,0,0,0,0,0,0
2.917253,0.397986,-10.771945,1.891618e-12,0,0,1.891618e-12,-1.110223e-16,-2.220446e-16,1.368119e-17,0,0,0,0,-1.093612e-16,-2.237057e-16,5.717222e-17,51.92255,7.622963e-17,1.291672e-16,0,0,0,0,0,0
2.964544,0.397986,-10.748421,1.891618e-12,0,0,1.891618e-12,-1.110223e-16,-1.110223e-16,-1.15105e-17,0,0,0,0,-9.95118e-17,-1.225328e-16,1.15105e-17,0,1.534734e-17,7.519878e-17,0,0,0,0,0,0
3.011834,0.397986,-10.724212,1.891618e-12,0,0,1.891618e-12,0,0,1.940727e-17,0,0,0,0,1.940727e-17,-1.940727e-17,1.940727e-17,90,2.587636e-17,2.240959e-17,0,0,0,0,0,0
3.059125,0.397986,-10.698445,1.891618e-12,0,0,1.891618e-12,0,0,-1.427577e-17,0,0,0,0,1.427577e-17,-1.427577e-17,1.427577e-17,0,1.903436e-17,1.648424e-17,0,0,0,0,0,0
3.106415,0.397986,-10.670406,1.891618e-12,0,0,1.891618e-12,-1.110223e-16,0,-1.88557e-17,0,0,0,0,3.114997e-18,-1.141373e-16,5.862615e-17,-35.619354,7.81682e-17,7.715083e-17,0,0,0,0,0,0
3.153705,0.397986,-10.638924,1.891618e-12,0,0,1.891618e-12,0,-1.110223e-16,-2.308184e-17,0,0,0,0,4.607559e-18,-1.156299e-16,6.011871e-17,33.711094,8.015828e-17,7.866742e-17,0,0,0,0,0,0
3.200996,0.397986,-10.601892,1.891618e-12,0,0,1.891618e-12,0,2.220446e-16,-3.422949e-17,0,0,0,0,2.272015e-16,-5.156912e-18,1.161792e-16,-36.432423,1.549056e-16,1.532156e-16,0,0,0,0,0,0
3.248286,0.397986,-10.557096,1.891618e-12,0,0,1.891618e-12,2.220446e-16,-1.110223e-16,3.920388e-17,0,0,0,0,2.265969e-16,-1.155746e-16,1.710858e-16,51.623444,2.281143e-16,2.009892e-16,0,0,0,0,0,0
3.295577,0.397986,-10.501961,1.891618e-12,0,0,1.891618e-12,0,-1.110223e-16,2.313201e-17,0,0,0,0,4.626839e-18,-1.156491e-16,6.013799e-17,56.310974,8.018399e-17,7.868706e-17,0,0,0,0,0,0
3.342867,0.397986,-10.432451,1.891618e-12,0,0,1.891618e-12,-3.330669e-16,4.440892e-16,8.10004e-18,0,0,0,0,4.441736e-16,-3.331513e-16,3.886625e-16,-45.597088,5.182166e-16,4.50312e-16,0,0,0,0,0,0
3.390158,0.397986,-10.371151,1.891618e-12,0,0,1.891618e-12,2.220446e-16,0,4.688748e-17,0,0,0,0,2.315395e-16,-9.494862e-18,1.205172e-16,56.447769,1.606895e-16,1.5762e-16,0,0,0,0,0,0
1.451249,0.350695,-10.129103,1.891618e-12,0,0,1.891618e-12,-3.330669e-16,-2.220446e-16,-1.753823e-16,0,0,0,0,-9.359805e-17,-4.615135e-16,1.839577e-16,-8.781684,2.452769e-16,2.817079e-16,0,0,0,0,0,0
1.49854,0.350695,-10.211884,1.891618e-12,0,0,1.891618e-12,4.440892e-16,0,5.390065e-17,0,0,0,0,4.505377e-16,-6.448472e-18,2.284931e-16,51.822227,3.046574e-16,3.025309e-16,0,0,0,0,0,0
1.54583,0.350695,-10.303496,1.891618e-12,0,0,1.891618e-12,0,2.220446e-16,-3.72805e-17,0,0,0,0,2.281367e-16,-6.092117e-18,1.171144e-16,-35.719158,1.561526e-16,1.54162e-16,0,0,0,0,0,0
1.593121,0.350695,-10.381238,1.891618e-12,0,0,1.891618e-12,-3.330669e-16,-2.220446e-16,8.485043e-18,0,0,0,0,-2.213999e-16,-3.337117e-16,5.615589e-17,-49.34528,7.487452e-17,1.960699e-16,0,0,0,0,0,0
1.640411,0.350695,-10.445716,1.891618e-12,0,0,1.891618e-12,0,2.220446e-16,1.226487e-17,0,0,0,0,2.2272e-16,-6.754082e-19,1.116977e-16,-48.152012,1.489303e-16,1.487057e-16,0,0,0,0,0,0
1.687701,0.350695,-10.502179,1.891618e-12,0,0,1.891618e-12,0,2.220446e-16,-1.721768e-17,0,0,0,0,2.233717e-16,-1.327153e-18,1.123495e-16,-40.592308,1.497993e-16,1.493589e-16,0,0,0,0,0,0
1.734992,0.350695,-10.554567,1.891618e-12,0,0,1.891618e-12,-2.220446e-16,-1.110223e-16,-2.458753e-17,0,0,0,0,-1.058207e-16,-2.272462e-16,6.071272e-17,-33.055019,8.095029e-17,1.313037e-16,0,0,0,0,0,0
1.782282,0.350695,-10.602669,1.891618e-12,0,0,1.891618e-12,-3.330669e-16,2.220446e-16,3.404045e-17,0,0,0,0,2.241242e-16,-3.351465e-16,2.796354e-16,-48.496021,3.728472e-16,3.25009e-16,0,0,0,0,0,0
1.829573,0.350695,-10.645119,1.891618e-12,0,0,1.891618e-12,2.220446e-16,-2.220446e-16,1.57681e-17,0,0,0,0,2.226038e-16,-2.226038e-16,2.226038e-16,47.030972,2.96805e-16,2.570407e-16,0,0,0,0,0,0
1.876863,0.350695,-10.680753,1.891618e-12,0,0,1.891618e-12,2.220446e-16,0,4.436383e-17,0,0,0,0,2.305802e-16,-8.535637e-18,1.195579e-16,55.890671,1.594106e-16,1.566429e-16,0,0,0,0,0,0
1.924154,0.350695,-10.710278,1.891618e-12,0,0,1.891618e-12,0,2.220446e-16,3.276152e-17,0,0,0,0,2.267775e-16,-4.732908e-18,1.157552e-16,-53.22039,1.543403e-16,1.527871e-16,0,0,0,0,0,0
1.971444,0.350695,-10.735849,1.891618e-12,0,0,1.891618e-12,0,0,2.359427e-17,0,0,0,0,2.359427e-17,-2.359427e-17,2.359427e-17,90,3.145903e-17,2.724432e-17,0,0,0,0,0,0
2.018735,0.350695,-10.758728,1.891618e-12,0,0,1.891618e-12,2.220446e-16,2.220446e-16,2.14273e-17,0,0,0,0,2.434719e-16,2.006173e-16,2.14273e-17,90,2.856974e-17,1.500832e-16,0,0,0,0,0,0
2.066025,0.350695,-10.779997,1.891618e-12,0,0,1.891618e-12,0,-1.110223e-16,2.557896e-17,0,0,0,0,5.609803e-18,-1.166321e-16,6.112096e-17,57.369877,8.149461e-17,7.969051e-17,0,0,0,0,0,0
2.113316,0.350695,-10.800653,1.891618e-12,0,0,1.891618e-12,0,2.220446e-16,4.160143e-17,0,0,0,0,2.29583e-16,-7.538362e-18,1.185607e-16,-55.270798,1.580809e-16,1.55629e-16,0,0,0,0,0,0
2.160606,0.350695,-10.820817,1.891618e-12,0,0,1.891618e-12,-1.110223e-16,2.220446e-16,-7.295558e-18,0,0,0,0,2.222043e-16,-1.11182e-16,1.666932e-16,-43.745785,2.222576e-16,1.96006e-16,0,0,0,0,0,0
2.207896,0.350695,-10.838925,1.891618e-12,0,0,1.891618e-12,-2.220446e-16,0,5.372335e-17,0,0,0,0,1.231524e-17,-2.343599e-16,1.233375e-16,-57.911098,1.644501e-16,1.605025e-16,0,0,0,0,0,0
2.255187,0.350695,-10.851989,1.891618e-12,0,0,1.891618e-12,-2.220446e-16,2.220446e-16,-4.811717e-18,0,0,0,0,2.220967e-16,-2.220967e-16,2.220967e-16,-44.379295,2.96129e-16,2.564552e-16,0,0,0,0,0,0
2.302477,0.350695,-10.858538,1.891618e-12,0,0,1.891618e-12,2.220446e-16,2.220446e-16,1.009223e-18,0,0,0,0,2.230538e-16,2.210354e-16,1.009223e-18,90,1.345631e-18,1.480343e-16,0,0,0,0,0,0
2.349768,0.350695,-10.860817,1.891618e-12,0,0,1.891618e-12,0,0,-5.25699e-18,0,0,0,0,5.25699e-18,-5.25699e-18,5.25699e-18,0,7.00932e-18,6.070249e-18,0,0,0,0,0,0
2.397058,0.350695,-10.861537,1.891618e-12,0,0,1.891618e-12,2.220446e-16,-1.110223e-16,8.775419e-18,0,0,0,0,2.222757e-16,-1.112534e-16,1.667645e-16,46.508194,2.223527e-16,1.960869e-16,0,0,0,0,0,0
2.444349,0.350695,-10.862084,1.891618e-12,0,0,1.891618e-12,-2.220446e-16,-1.110223e-16,2.086863e-18,0,0,0,0,-1.109831e-16,-2.220838e-16,5.555037e-17,-46.076469,7.406715e-17,1.282202e-16,0,0,0,0,0,0
2.491639,0.350695,-10.861547,1.891618e-12,0,0,1.891618e-12,0,-4.440892e-16,-1.158314e-17,0,0,0,0,3.019166e-19,-4.443911e-16,2.223465e-16,43.506912,2.96462e-16,2.963614e-16,0,0,0,0,0,0
2.53893,0.350695,-10.858887,1.891618e-12,0,0,1.891618e-12,0,2.220446e-16,4.186982e-17,0,0,0,0,2.296774e-16,-7.6328e-18,1.186551e-16,-55.331478,1.582068e-16,1.557249e-16,0,0,0,0,0,0
2.58622,0.350695,-10.853447,1.891618e-12,0,0,1.891618e-12,0,2.220446e-16,6.812416e-18,0,0,0,0,2.222534e-16,-2.088112e-19,1.112311e-16,-46.755657,1.483082e-16,1.482386e-16,0,0,0,0,0,0
2.633511,0.350695,-10.847086,1.891618e-12,0,0,1.891618e-12,-1.110223e-16,-1.110223e-16,-8.505324e-19,0,0,0,0,-1.101718e-16,-1.118728e-16,8.505324e-19,0,1.134043e-18,7.402138e-17,0,0,0,0,0,0
2.680801,0.350695,-10.841031,1.891618e-12,0,0,1.891618e-12,2.220446e-16,2.220446e-16,1.277001e-17,0,0,0,0,2.348146e-16,2.092746e-16,1.277001e-17,90,1.702668e-17,1.487623e-16,0,0,0,0,0,0
2.728091,0.350695,-10.834514,1.891618e-12,0,0,1.891618e-12,2.220446e-16,2.220446e-16,8.163447e-18,0,0,0,0,2.30208e-16,2.138812e-16,8.163447e-18,90,1.08846e-17,1.483296e-16,0,0,0,0,0,0
2.775382,0.350695,-10.825188,1.891618e-12,0,0,1.891618e-12,2.220446e-16,-2.220446e-16,1.312605e-17,0,0,0,0,2.224322e-16,-2.224322e-16,2.224322e-16,46.691536,2.965763e-16,2.568426e-16,0,0,0,0,0,0
2.822672,0.350695,-10.811231,1.891618e-12,0,0,1.891618e-12,-1.110223e-16,0,8.454147e-19,0,0,0,0,6.437306e-21,-1.110287e-16,5.551759e-17,-45.436264,7.402345e-17,7.40213e-17,0,0,0,0,0,0
2.869963,0.350695,-10.792469,1.891618e-12,0,0,1.891618e-12,-2.220446e-16,2.220446e-16,-3.4103e-17,0,0,0,0,2.246482e-16,-2.246482e-16,2.246482e-16,-40.634193,2.99531e-16,2.594014e-16,0,0,0,0,0,0
2.917253,0.350695,-10.77026,1.891618e-12,0,0,1.891618e-12,0,2.220446e-16,-1.228331e-17,0,0,0,0,2.22722e-16,-6.774349e-19,1.116997e-16,-41.843288,1.48933e-16,1.487077e-16,0,0,0,0,0,0
2.964544,0.350695,-10.746734,1.891618e-12,0,0,1.891618e-12,0,2.220446e-16,-1.919715e-17,0,0,0,0,2.236921e-16,-1.64749e-18,1.126698e-16,-40.094921,1.502264e-16,1.496803e-16,0,0,0,0,0,0
3.011834,0.350695,-10.72215,1.891618e-12,0,0,1.891618e-12,-1.110223e-16,-1.110223e-16,9.94749e-18,0,0,0,0,-1.010748e-16,-1.209698e-16,9.94749e-18,90,1.326332e-17,7.490085e-17,0,0,0,0,0,0
3.059125,0.350695,-10.695734,1.891618e-12,0,0,1.891618e-12,0,2.220446e-16,1.521341e-17,0,0,0,0,2.230821e-16,-1.037501e-18,1.120598e-16,-48.901329,1.494131e-16,1.490684e-16,0,0,0,0,0,0
3.106415,0.350695,-10.667127,1.891618e-12,0,0,1.891618e-12,2.220446e-16,2.220446e-16,-5.303728e-18,0,0,0,0,2.273483e-16,2.167409e-16,5.303728e-18,0,7.071637e-18,1.481564e-16,0,0,0,0,0,0
3.153705,0.350695,-10.635588,1.891618e-12,0,0,1.891618e-12,2.220446e-16,-1.110223e-16,5.947465e-17,0,0,0,0,2.323462e-16,-1.213239e-16,1.76835e-16,54.826672,2.3578e-16,2.07518e-16,0,0,0,0,0,0
3.200996,0.350695,-10.599387,1.891618e-12,0,0,1.891618e-12,-2.220446e-16,2.220446e-16,-4.286696e-18,0,0,0,0,2.22086e-16,-2.22086e-16,2.22086e-16,-44.447006,2.961146e-16,2.564428e-16,0,0,0,0,0,0
3.248286,0.350695,-10.555565,1.891618e-12,0,0,1.891618e-12,2.220446e-16,-1.110223e-16,2.992206e-17,0,0,0,0,2.247114e-16,-1.136891e-16,1.692002e-16,50.092995,2.256003e-16,1.988496e-16,0,0,0,0,0,0
3.295577,0.350695,-10.499989,1.891618e-12,0,0,1.891618e-12,0,0,2.399336e-17,0,0,0,0,2.399336e-17,-2.399336e-17,2.399336e-17,90,3.199115e-17,2.770515e-17,0,0,0,0,0,0
3.342867,0.350695,-10.448782,1.891618e-12,0,0,1.891618e-12,2.220446e-16,-1.110223e-16,-5.714178e-17,0,0,0,0,2.315753e-16,-1.20553e-16,1.760641e-16,35.530815,2.347522e-16,2.066422e-16,0,0,0,0,0,0
1.49854,0.303405,-10.228044,1.891618e-12,0,0,1.891618e-12,-2.220446e-16,0,-2.497937e-17,0,0,0,0,2.775415e-18,-2.2482e-16,1.137977e-16,-38.659969,1.517303e-16,1.508137e-16,0,0,0,0,0,0
1.54583,0.303405,-10.305757,1.891618e-12,0,0,1.891618e-12,0,-1.110223e-16,1.160717e-17,0,0,0,0,1.200526e-18,-1.122228e-16,5.671167e-17,50.905087,7.561557e-17,7.521859e-17,0,0,0,0,0,0
1.593121,0.303405,-10.385089,1.891618e-12,0,0,1.891618e-12,2.220446e-16,0,3.433546e-17,0,0,0,0,2.272328e-16,-5.188176e-18,1.162105e-16,53.592537,1.549473e-16,1.532472e-16,0,0,0,0,0,0
1.640411,0.303405,-10.448892,1.891618e-12,0,0,1.891618e-12,0,-1.110223e-16,-3.815334e-18,0,0,0,0,1.309613e-19,-1.111533e-16,5.564211e-17,43.034096,7.418949e-17,7.414587e-17,0,0,0,0,0,0
1.687701,0.303405,-10.504578,1.891618e-12,0,0,1.891618e-12,-2.220446e-16,2.220446e-16,-8.653964e-17,0,0,0,0,2.383126e-16,-2.383126e-16,2.383126e-16,-34.353577,3.177502e-16,2.751797e-16,0,0,0,0,0,0
1.734992,0.303405,-10.556392,1.891618e-12,0,0,1.891618e-12,2.220446e-16,0,1.650364e-17,0,0,0,0,2.232645e-16,-1.219943e-18,1.122422e-16,49.227596,1.496563e-16,1.492513e-16,0,0,0,0,0,0
1.782282,0.303405,-10.604185,1.891618e-12,0,0,1.891618e-12,0,-1.110223e-16,7.626209e-18,0,0,0,0,5.214016e-19,-1.115437e-16,5.603255e-17,48.911209,7.471007e-17,7.453688e-17,0,0,0,0,0,0
1.829573,0.303405,-10.646235,1.891618e-12,0,0,1.891618e-12,4.440892e-16,2.220446e-16,-1.791788e-17,0,0,0,0,4.455258e-16,2.20608e-16,1.124589e-16,40.416046,1.499452e-16,2.572284e-16,0,0,0,0,0,0
1.876863,0.303405,-10.681545,1.891618e-12,0,0,1.891618e-12,0,-1.110223e-16,-2.502851e-18,0,0,0,0,5.639483e-20,-1.110787e-16,5.556755e-17,43.709217,7.409006e-17,7.407127e-17,0,0,0,0,0,0
1.924154,0.303405,-10.710888,1.891618e-12,0,0,1.891618e-12,-2.220446e-16,2.220446e-16,-1.960912e-18,0,0,0,0,2.220533e-16,-2.220533e-16,2.220533e-16,-44.747013,2.96071e-16,2.56405e-16,0,0,0,0,0,0
1.971444,0.303405,-10.736531,1.891618e-12,0,0,1.891618e-12,-2.220446e-16,2.220446e-16,1.464383e-17,0,0,0,0,2.22527e-16,-2.22527e-16,2.22527e-16,-46.886597,2.967026e-16,2.56952e-16,0,0,0,0,0,0
2.018735,0.303405,-10.760048,1.891618e-12,0,0,1.891618e-12,-3.330669e-16,0,-6.019365e-19,0,0,0,0,1.087849e-21,-3.33068e-16,1.665345e-16,-44.896454,2.220461e-16,2.220457e-16,0,0,0,0,0,0
2.066025,0.303405,-10.78227,1.891618e-12,0,0,1.891618e-12,2.220446e-16,0,7.559655e-18,0,0,0,0,2.223017e-16,-2.570758e-19,1.112794e-16,46.947666,1.483725e-16,1.482869e-16,0,0,0,0,0,0
2.113316,0.303405,-10.804167,1.891618e-12,0,0,1.891618e-12,0,-1.110223e-16,-1.531779e-17,0,0,0,0,2.074634e-18,-1.130969e-16,5.758579e-17,37.286823,7.678105e-17,7.609893e-17,0,0,0,0,0,0
2.160606,0.303405,-10.825335,1.891618e-12,0,0,1.891618e-12,-1.110223e-16,2.220446e-16,-8.35998e-20,0,0,0,0,2.220446e-16,-1.110223e-16,1.665335e-16,-44.985619,2.220446e-16,1.95825e-16,0,0,0,0,0,0
2.207896,0.303405,-10.844018,1.891618e-12,0,0,1.891618e-12,2.220446e-16,-1.110223e-16,-1.605981e-17,0,0,0,0,2.228172e-16,-1.117949e-16,1.67306e-16,42.245831,2.230747e-16,1.96701e-16,0,0,0,0,0,0
2.255187,0.303405,-10.857429,1.891618e-12,0,0,1.891618e-12,-3.330669e-16,-2.220446e-16,-3.291129e-17,0,0,0,0,-2.130217e-16,-3.420898e-16,6.453402e-17,-29.668636,8.604537e-17,1.994783e-16,0,0,0,0,0,0
2.302477,0.303405,-10.864396,1.891618e-12,0,0,1.891618e-12,0,2.220446e-16,-2.975276e-18,0,0,0,0,2.220845e-16,-3.985993e-20,1.110622e-16,-44.232452,1.480829e-16,1.480696e-16,0,0,0,0,0,0
2.349768,0.303405,-10.866898,1.891618e-12,0,0,1.891618e-12,-1.110223e-16,0,1.976745e-18,0,0,0,0,3.518466e-20,-1.110575e-16,5.554634e-17,-46.019718,7.406178e-17,7.405006e-17,0,0,0,0,0,0
2.397058,0.303405,-10.867906,1.891618e-12,0,0,1.891618e-12,-4.440892e-16,2.220446e-16,1.164598e-17,0,0,0,0,2.222482e-16,-4.442928e-16,3.332705e-16,-46.001289,4.443606e-16,3.918807e-16,0,0,0,0,0,0
2.444349,0.303405,-10.868134,1.891618e-12,0,0,1.891618e-12,2.220446e-16,0,-2.340965e-17,0,0,0,0,2.244858e-16,-2.441187e-18,1.134635e-16,39.046646,1.512847e-16,1.504775e-16,0,0,0,0,0,0
2.491639,0.303405,-10.866824,1.891618e-12,0,0,1.891618e-12,-2.220446e-16,-1.110223e-16,2.122571e-17,0,0,0,0,-1.071027e-16,-2.259642e-16,5.943079e-17,-55.462639,7.924105e-17,1.305194e-16,0,0,0,0,0,0
2.53893,0.303405,-10.863233,1.891618e-12,0,0,1.891618e-12,2.220446e-16,-2.220446e-16,-2.569449e-17,0,0,0,0,2.235263e-16,-2.235263e-16,2.235263e-16,41.699612,2.980351e-16,2.581059e-16,0,0,0,0,0,0
2.58622,0.303405,-10.856957,1.891618e-12,0,0,1.891618e-12,0,-4.440892e-16,9.747314e-18,0,0,0,0,2.138408e-19,-4.44303e-16,2.222585e-16,46.256779,2.963446e-16,2.962733e-16,0,0,0,0,0,0
2.633511,0.303405,-10.849772,1.891618e-12,0,0,1.891618e-12,2.220446e-16,0,1.152996e-17,0,0,0,0,2.226417e-16,-5.971025e-19,1.116194e-16,47.964531,1.488259e-16,1.486272e-16,0,0,0,0,0,0
2.680801,0.303405,-10.842819,1.891618e-12,0,0,1.891618e-12,-1.110223e-16,2.220446e-16,-5.200274e-18,0,0,0,0,2.221258e-16,-1.111035e-16,1.666146e-16,-44.105713,2.221528e-16,1.95917e-16,0,0,0,0,0,0
2.728091,0.303405,-10.835181,1.891618e-12,0,0,1.891618e-12,0,2.220446e-16,1.255858e-17,0,0,0,0,2.227526e-16,-7.080411e-19,1.117303e-16,-48.226868,1.489738e-16,1.487383e-16,0,0,0,0,0,0
2.775382,0.303405,-10.825015,1.891618e-12,0,0,1.891618e-12,2.220446e-16,2.220446e-16,-5.426715e-19,0,0,0,0,2.225873e-16,2.215019e-16,5.426715e-19,0,7.23562e-19,1.480311e-16,0,0,0,0,0,0
2.822672,0.303405,-10.810836,1.891618e-12,0,0,1.891618e-12,2.220446e-16,2.220446e-16,-3.357527e-17,0,0,0,0,2.556199e-16,1.884693e-16,3.357527e-17,0,4.476703e-17,1.530224e-16,0,0,0,0,0,0
2.869963,0.303405,-10.792319,1.891618e-12,0,0,1.891618e-12,-1.110223e-16,-1.110223e-16,-2.32141e-18,0,0,0,0,-1.087009e-16,-1.133437e-16,2.32141e-18,0,3.095213e-18,7.406339e-17,0,0,0,0,0,0
2.917253,0.303405,-10.77039,1.891618e-12,0,0,1.891618e-12,-1.110223e-16,2.220446e-16,-8.300287e-18,0,0,0,0,2.222513e-16,-1.11229e-16,1.667402e-16,-43.573326,2.223202e-16,1.960593e-16,0,0,0,0,0,0
2.964544,0.303405,-10.746754,1.891618e-12,0,0,1.891618e-12,2.220446e-16,0,-3.369643e-18,0,0,0,0,2.220957e-16,-5.112433e-20,1.110734e-16,44.130772,1.480979e-16,1.480809e-16,0,0,0,0,0,0
3.011834,0.303405,-10.721665,1.891618e-12,0,0,1.891618e-12,2.220446e-16,-1.110223e-16,-4.147727e-17,0,0,0,0,2.271321e-16,-1.161098e-16,1.71621e-16,38.007156,2.28828e-16,2.015967e-16,0,0,0,0,0,0
3.059125,0.303405,-10.694494,1.891618e-12,0,0,1.891618e-12,-2.220446e-16,0,-1.150556e-18,0,0,0,0,5.961611e-21,-2.220506e-16,1.110283e-16,-44.703125,1.480377e-16,1.480357e-16,0,0,0,0,0,0
3.106415,0.303405,-10.665023,1.891618e-12,0,0,1.891618e-12,0,-1.110223e-16,2.60865e-17,0,0,0,0,5.82394e-18,-1.168462e-16,6.133509e-17,57.585182,8.178012e-17,7.990958e-17,0,0,0,0,0,0
3.153705,0.303405,-10.63288,1.891618e-12,0,0,1.891618e-12,2.220446e-16,-4.440892e-16,-1.123379e-17,0,0,0,0,2.22234e-16,-4.442786e-16,3.332563e-16,44.034122,4.443417e-16,3.918646e-16,0,0,0,0,0,0
3.200996,0.303405,-10.59659,1.891618e-12,0,0,1.891618e-12,0,-1.110223e-16,-3.05891e-17,0,0,0,0,7.870083e-18,-1.188924e-16,6.338123e-17,30.571646,8.450831e-17,8.201092e-17,0,0,0,0,0,0
3.248286,0.303405,-10.55361,1.891618e-12,0,0,1.891618e-12,-2.220446e-16,0,3.413171e-17,0,0,0,0,5.128138e-18,-2.271728e-16,1.161504e-16,-53.544529,1.548673e-16,1.531865e-16,0,0,0,0,0,0
3.295577,0.303405,-10.498584,1.891618e-12,0,0,1.891618e-12,0,2.220446e-16,-5.694835e-18,0,0,0,0,2.221906e-16,-1.459609e-19,1.111683e-16,-43.531807,1.482243e-16,1.481757e-16,0,0,0,0,0,0
3.342867,0.303405,-10.452673,1.891618e-12,0,0,1.891618e-12,2.220446e-16,2.220446e-16,-2.207691e-17,0,0,0,0,2.441215e-16,1.999677e-16,2.207691e-17,0,2.943588e-17,1.502087e-16,0,0,0,0,0,0
1.49854,0.256114,-10.225356,1.891618e-12,0,0,1.891618e-12,0,-1.110223e-16,3.213098e-17,0,0,0,0,8.628446e-18,-1.196507e-16,6.41396e-17,60.031567,8.551946e-17,8.279332e-17,0,0,0,0,0,0
1.54583,0.256114,-10.30807,1.891618e-12,0,0,1.891618e-12,-1.110223e-16,0,3.614645e-17,0,0,0,0,1.073124e-17,-1.217535e-16,6.624238e-17,-61.535213,8.832318e-17,8.497228e-17,0,0,0,0,0,0
1.593121,0.256114,-10.387566,1.891618e-12,0,0,1.891618e-12,-1.110223e-16,0,2.644024e-17,0,0,0,0,5.975221e-18,-1.169975e-16,6.148637e-17,-57.734344,8.198183e-17,8.006445e-17,0,0,0,0,0,0
1.640411,0.256114,-10.451001,1.891618e-12,0,0,1.891618e-12,0,-2.220446e-16,1.443082e-18,0,0,0,0,9.378282e-21,-2.22054e-16,1.110317e-16,45.372349,1.480422e-16,1.480391e-16,0,0,0,0,0,0
1.687701,0.256114,-10.505419,1.891618e-12,0,0,1.891618e-12,-2.220446e-16,2.220446e-16,-2.929872e-17,0,0,0,0,2.239692e-16,-2.239692e-16,2.239692e-16,-41.241631,2.986256e-16,2.586174e-16,0,0,0,0,0,0
1.734992,0.256114,-10.555787,1.891618e-12,0,0,1.891618e-12,-2.220446e-16,2.220446e-16,3.28919e-17,0,0,0,0,2.244676e-16,-2.244676e-16,2.244676e-16,-49.213032,2.992901e-16,2.591928e-16,0,0,0,0,0,0
1.782282,0.256114,-10.602424,1.891618e-12,0,0,1.891618e-12,2.220446e-16,0,1.586665e-17,0,0,0,0,2.231727e-16,-1.128053e-18,1.121504e-16,49.06665,1.495338e-16,1.491592e-16,0,0,0,0,0,0
1.829573,0.256114,-10.643739,1.891618e-12,0,0,1.891618e-12,-2.220446e-16,0,-4.698964e-18,0,0,0,0,9.939617e-20,-2.22144e-16,1.111217e-16,-43.788216,1.481623e-16,1.481291e-16,0,0,0,0,0,0
1.876863,0.256114,-10.678642,1.891618e-12,0,0,1.891618e-12,2.220446e-16,-1.110223e-16,4.114527e-19,0,0,0,0,2.220451e-16,-1.110228e-16,1.66534e-16,45.070782,2.220453e-16,1.958255e-16,0,0,0,0,0,0
1.924154,0.256114,-10.708284,1.891618e-12,0,0,1.891618e-12,2.220446e-16,-1.110223e-16,1.633668e-17,0,0,0,0,2.22844e-16,-1.118217e-16,1.673328e-16,47.801353,2.231104e-16,1.967314e-16,0,0,0,0,0,0
1.971444,0.256114,-10.734888,1.891618e-12,0,0,1.891618e-12,2.220446e-16,-2.220446e-16,1.204464e-17,0,0,0,0,2.22371e-16,-2.22371e-16,2.22371e-16,46.552464,2.964947e-16,2.567719e-16,0,0,0,0,0,0
2.018735,0.256114,-10.760083,1.891618e-12,0,0,1.891618e-12,0,0,-1.263867e-17,0,0,0,0,1.263867e-17,-1.263867e-17,1.263867e-17,0,1.685155e-17,1.459387e-17,0,0,0,0,0,0
2.066025,0.256114,-10.78405,1.891618e-12,0,0,1.891618e-12,2.220446e-16,0,-1.172764e-17,0,0,0,0,2.226623e-16,-6.176954e-19,1.1164e-16,41.985012,1.488533e-16,1.486479e-16,0,0,0,0,0,0
2.113316,0.256114,-10.807183,1.891618e-12,0,0,1.891618e-12,0,2.220446e-16,-4.494345e-17,0,0,0,0,2.307965e-16,-8.751925e-18,1.197742e-16,-33.980587,1.59699e-16,1.568631e-16,0,0,0,0,0,0
2.160606,0.256114,-10.828557,1.891618e-12,0,0,1.891618e-12,0,0,5.182946e-18,0,0,0,0,5.182946e-18,-5.182946e-18,5.182946e-18,90,6.910595e-18,5.984751e-18,0,0,0,0,0,0
2.207896,0.256114,-10.847258,1.891618e-12,0,0,1.891618e-12,2.220446e-16,0,-6.685162e-18,0,0,0,0,2.222457e-16,-2.0109e-19,1.112234e-16,43.277058,1.482979e-16,1.482309e-16,0,0,0,0,0,0
2.255187,0.256114,-10.86102,1.891618e-12,0,0,1.891618e-12,-1.110223e-16,0,-4.993928e-17,0,0,0,0,1.915758e-17,-1.301799e-16,7.466873e-17,-24.012312,9.955831e-17,9.382667e-17,0,0,0,0,0,0
2.302477,0.256114,-10.868797,1.891618e-12,0,0,1.891618e-12,0,2.220446e-16,6.239434e-18,0,0,0,0,2.222198e-16,-1.751893e-19,1.111975e-16,-46.608315,1.482633e-16,1.48205e-16,0,0,0,0,0,0
2.349768,0.256114,-10.872182,1.891618e-12,0,0,1.891618e-12,-2.220446e-16,-1.110223e-16,-3.265603e-18,0,0,0,0,-1.109263e-16,-2.221406e-16,5.560712e-17,-43.316647,7.414283e-17,1.28253e-16,0,0,0,0,0,0
2.397058,0.256114,-10.873865,1.891618e-12,0,0,1.891618e-12,0,-1.110223e-16,1.662591e-17,0,0,0,0,2.436314e-18,-1.134586e-16,5.794746e-17,53.336628,7.726329e-17,7.646412e-17,0,0,0,0,0,0
2.444349,0.256114,-10.874166,1.891618e-12,0,0,1.891618e-12,0,2.220446e-16,-1.825824e-17,0,0,0,0,2.235359e-16,-1.491318e-18,1.125136e-16,-40.330494,1.500182e-16,1.495235e-16,0,0,0,0,0,0
2.491639,0.256114,-10.872615,1.891618e-12,0,0,1.891618e-12,-6.661338e-16,2.220446e-16,2.626028e-17,0,0,0,0,2.228204e-16,-6.669095e-16,4.448649e-16,-46.692062,5.931533e-16,5.345895e-16,0,0,0,0,0,0
2.53893,0.256114,-10.868602,1.891618e-12,0,0,1.891618e-12,2.220446e-16,-1.110223e-16,7.812141e-19,0,0,0,0,2.220464e-16,-1.110241e-16,1.665353e-16,45.134388,2.22047e-16,1.95827e-16,0,0,0,0,0,0
2.58622,0.256114,-10.861858,1.891618e-12,0,0,1.891618e-12,0,0,-2.021685e-17,0,0,0,0,2.021685e-17,-2.021685e-17,2.021685e-17,0,2.695581e-17,2.334441e-17,0,0,0,0,0,0
2.633511,0.256114,-10.854303,1.891618e-12,0,0,1.891618e-12,-1.110223e-16,0,1.968185e-17,0,0,0,0,3.385904e-18,-1.144082e-16,5.889705e-17,-54.76115,7.85294e-17,7.742546e-17,0,0,0,0,0,0
2.680801,0.256114,-10.846941,1.891618e-12,0,0,1.891618e-12,0,-1.110223e-16,-2.383028e-17,0,0,0,0,4.898868e-18,-1.159212e-16,6.041002e-17,33.383362,8.054669e-17,7.896441e-17,0,0,0,0,0,0
2.728091,0.256114,-10.838624,1.891618e-12,0,0,1.891618e-12,0,2.220446e-16,1.695015e-17,0,0,0,0,2.233311e-16,-1.286464e-18,1.123088e-16,-49.340252,1.49745e-16,1.493181e-16,0,0,0,0,0,0
2.775382,0.256114,-10.827913,1.891618e-12,0,0,1.891618e-12,2.220446e-16,0,-5.30556e-18,0,0,0,0,2.221713e-16,-1.266994e-19,1.11149e-16,43.632008,1.481987e-16,1.481565e-16,0,0,0,0,0,0
2.822672,0.256114,-10.813612,1.891618e-12,0,0,1.891618e-12,0,-1.110223e-16,-8.820655e-18,0,0,0,0,6.964272e-19,-1.117187e-16,5.620758e-17,40.485626,7.494344e-17,7.471238e-17,0,0,0,0,0,0
2.869963,0.256114,-10.795094,1.891618e-12,0,0,1.891618e-12,2.220446e-16,0,2.703205e-17,0,0,0,0,2.252882e-16,-3.243543e-18,1.142658e-16,51.84214,1.523545e-16,1.512849e-16,0,0,0,0,0,0
2.917253,0.256114,-10.773304,1.891618e-12,0,0,1.891618e-12,-1.110223e-16,0,-1.218413e-17,0,0,0,0,1.321419e-18,-1.123437e-16,5.683257e-17,-38.81023,7.577676e-17,7.534015e-17,0,0,0,0,0,0
2.964544,0.256114,-10.749618,1.891618e-12,0,0,1.891618e-12,0,2.220446e-16,-3.686584e-17,0,0,0,0,2.280054e-16,-5.960781e-18,1.169831e-16,-35.815422,1.559775e-16,1.54029e-16,0,0,0,0,0,0
3.011834,0.256114,-10.72422,1.891618e-12,0,0,1.891618e-12,2.220446e-16,2.220446e-16,1.274626e-17,0,0,0,0,2.347909e-16,2.092983e-16,1.274626e-17,90,1.699501e-17,1.487596e-16,0,0,0,0,0,0
3.059125,0.256114,-10.69649,1.891618e-12,0,0,1.891618e-12,-1.110223e-16,0,-1.932121e-17,0,0,0,0,3.26637e-18,-1.142887e-16,5.877752e-17,-35.404522,7.837003e-17,7.730424e-17,0,0,0,0,0,0
3.106415,0.256114,-10.666054,1.891618e-12,0,0,1.891618e-12,0,-1.110223e-16,4.711401e-17,0,0,0,0,1.729831e-17,-1.283206e-16,7.280946e-17,65.16114,9.707929e-17,9.185772e-17,0,0,0,0,0,0
3.153705,0.256114,-10.632586,1.891618e-12,0,0,1.891618e-12,0,-1.110223e-16,-2.250996e-17,0,0,0,0,4.390318e-18,-1.154126e-16,5.990147e-17,33.963642,7.986862e-17,7.844615e-17,0,0,0,0,0,0
3.200996,0.256114,-10.594937,1.891618e-12,0,0,1.891618e-12,-2.220446e-16,0,-1.477821e-17,0,0,0,0,9.792469e-19,-2.230239e-16,1.120016e-16,-41.208958,1.493354e-16,1.490101e-16,0,0,0,0,0,0
3.248286,0.256114,-10.552156,1.891618e-12,0,0,1.891618e-12,-2.220446e-16,2.220446e-16,-3.198792e-17,0,0,0,0,2.243369e-16,-2.243369e-16,2.243369e-16,-40.901161,2.991158e-16,2.590419e-16,0,0,0,0,0,0
3.295577,0.256114,-10.498706,1.891618e-12,0,0,1.891618e-12,2.220446e-16,-1.110223e-16,8.330415e-18,0,0,0,0,2.222528e-16,-1.112305e-16,1.667417e-16,46.431847,2.223222e-16,1.96061e-16,0,0,0,0,0,0
3.342867,0.256114,-10.453959,1.891618e-12,0,0,1.891618e-12,0,2.220446e-16,-8.757952e-18,0,0,0,0,2.223895e-16,-3.448981e-19,1.113672e-16,-42.744793,1.484896e-16,1.483748e-16,0,0,0,0,0,0
1.451249,0.208824,-10.115791,1.891618e-12,0,0,1.891618e-12,-3.330669e-16,0,1.549533e-16,0,0,0,0,6.093946e-17,-3.940064e-16,2.274729e-16,-66.468536,3.032972e-16,2.851629e-16,0,0,0,0,0,0
1.49854,0.208824,-10.210978,1.891618e-12,0,0,1.891618e-12,0,-3.330669e-16,8.602952e-17,0,0,0,0,2.090846e-17,-3.539754e-16,1.874419e-16,58.660213,2.499226e-16,2.432528e-16,0,0,0,0,0,0
1.54583,0.208824,-10.310587,1.891618e-12,0,0,1.891618e-12,-1.110223e-16,2.220446e-16,-3.276817e-17,0,0,0,0,2.252378e-16,-1.142155e-16,1.697267e-16,-39.434162,2.263022e-16,1.994469e-16,0,0,0,0,0,0
1.593121,0.208824,-10.389803,1.891618e-12,0,0,1.891618e-12,-1.110223e-16,-1.110223e-16,-4.476352e-18,0,0,0,0,-1.06546e-16,-1.154987e-16,4.476352e-18,0,5.968468e-18,7.419513e-17,0,0,0,0,0,0
1.640411,0.208824,-10.453002,1.891618e-12,0,0,1.891618e-12,0,-1.110223e-16,1.006332e-17,0,0,0,0,9.047886e-19,-1.119271e-16,5.641594e-17,50.137627,7.522125e-17,7.492148e-17,0,0,0,0,0,0
1.687701,0.208824,-10.506299,1.891618e-12,0,0,1.891618e-12,2.220446e-16,2.220446e-16,3.454775e-17,0,0,0,0,2.565924e-16,1.874969e-16,3.454775e-17,90,4.606367e-17,1.533108e-16,0,0,0,0,0,0
1.734992,0.208824,-10.554982,1.891618e-12,0,0,1.891618e-12,0,0,1.51428e-17,0,0,0,0,1.51428e-17,-1.51428e-17,1.51428e-17,90,2.01904e-17,1.74854e-17,0,0,0,0,0,0
1.782282,0.208824,-10.600107,1.891618e-12,0,0,1.891618e-12,0,0,8.422633e-18,0,0,0,0,8.422633e-18,-8.422633e-18,8.422633e-18,90,1.123018e-17,9.725618e-18,0,0,0,0,0,0
1.829573,0.208824,-10.640551,1.891618e-12,0,0,1.891618e-12,0,-1.110223e-16,1.800296e-17,0,0,0,0,2.846321e-18,-1.138686e-16,5.835747e-17,53.984264,7.780996e-17,7.687876e-17,0,0,0,0,0,0
1.876863,0.208824,-10.675083,1.891618e-12,0,0,1.891618e-12,-4.440892e-16,-1.110223e-16,-2.129916e-18,0,0,0,0,-1.110087e-16,-4.441028e-16,1.665471e-16,-44.633621,2.220628e-16,2.668757e-16,0,0,0,0,0,0
1.924154,0.208824,-10.705117,1.891618e-12,0,0,1.891618e-12,-1.110223e-16,2.220446e-16,-8.887223e-18,0,0,0,0,2.222816e-16,-1.112593e-16,1.667704e-16,-43.472626,2.223606e-16,1.960936e-16,0,0,0,0,0,0
1.971444,0.208824,-10.732936,1.891618e-12,0,0,1.891618e-12,0,2.220446e-16,2.75915e-18,0,0,0,0,2.220789e-16,-3.428021e-20,1.110566e-16,-45.711819,1.480754e-16,1.48064e-16,0,0,0,0,0,0
2.018735,0.208824,-10.759844,1.891618e-12,0,0,1.891618e-12,2.220446e-16,0,-1.226482e-17,0,0,0,0,2.2272e-16,-6.754028e-19,1.116977e-16,41.848,1.489303e-16,1.487056e-16,0,0,0,0,0,0
2.066025,0.208824,-10.785415,1.891618e-12,0,0,1.891618e-12,-2.220446e-16,0,1.570511e-17,0,0,0,0,1.105313e-18,-2.231499e-16,1.121276e-16,-49.025791,1.495035e-16,1.491364e-16,0,0,0,0,0,0
2.113316,0.208824,-10.809065,1.891618e-12,0,0,1.891618e-12,2.220446e-16,0,-1.007407e-17,0,0,0,0,2.225007e-16,-4.561197e-19,1.114784e-16,42.407612,1.486379e-16,1.484861e-16,0,0,0,0,0,0
2.160606,0.208824,-10.829741,1.891618e-12,0,0,1.891618e-12,0,2.220446e-16,-2.91726e-17,0,0,0,0,2.258134e-16,-3.768777e-18,1.147911e-16,-37.63879,1.530548e-16,1.518141e-16,0,0,0,0,0,0
2.207896,0.208824,-10.847659,1.891618e-12,0,0,1.891618e-12,2.220446e-16,0,-2.313051e-17,0,0,0,0,2.244285e-16,-2.383925e-18,1.134062e-16,39.115643,1.512083e-16,1.5042e-16,0,0,0,0,0,0
2.255187,0.208824,-10.861352,1.891618e-12,0,0,1.891618e-12,2.220446e-16,0,5.750539e-18,0,0,0,0,2.221934e-16,-1.488284e-19,1.111711e-16,46.482529,1.482282e-16,1.481786e-16,0,0,0,0,0,0
2.302477,0.208824,-10.869911,1.891618e-12,0,0,1.891618e-12,0,-1.110223e-16,-1.743308e-17,0,0,0,0,2.673041e-18,-1.136953e-16,5.818419e-17,36.282646,7.757892e-17,7.670344e-17,0,0,0,0,0,0
2.349768,0.208824,-10.874608,1.891618e-12,0,0,1.891618e-12,-1.110223e-16,0,1.904248e-17,0,0,0,0,3.175338e-18,-1.141976e-16,5.868649e-17,-54.46698,7.824865e-17,7.721198e-17,0,0,0,0,0,0
2.397058,0.208824,-10.877372,1.891618e-12,0,0,1.891618e-12,2.220446e-16,2.220446e-16,-7.470545e-19,0,0,0,0,2.227917e-16,2.212975e-16,7.470545e-19,0,9.960727e-19,1.480323e-16,0,0,0,0,0,0
2.444349,0.208824,-10.87865,1.891618e-12,0,0,1.891618e-12,0,0,1.133068e-18,0,0,0,0,1.133068e-18,-1.133068e-18,1.133068e-18,90,1.510757e-18,1.308354e-18,0,0,0,0,0,0
2.491639,0.208824,-10.877754,1.891618e-12,0,0,1.891618e-12,-2.220446e-16,2.220446e-16,1.153913e-17,0,0,0,0,2.223442e-16,-2.223442e-16,2.223442e-16,-46.487427,2.96459e-16,2.56741e-16,0,0,0,0,0,0
2.53893,0.208824,-10.874084,1.891618e-12,0,0,1.891618e-12,-1.110223e-16,0,8.209737e-18,0,0,0,0,6.037995e-19,-1.116261e-16,5.611495e-17,-49.206345,7.481994e-17,7.461948e-17,0,0,0,0,0,0
2.58622,0.208824,-10.867461,1.891618e-12,0,0,1.891618e-12,2.220446e-16,-2.220446e-16,-2.747688e-17,0,0,0,0,2.237382e-16,-2.237382e-16,2.237382e-16,41.4729,2.983176e-16,2.583506e-16,0,0,0,0,0,0
2.633511,0.208824,-10.86013,1.891618e-12,0,0,1.891618e-12,2.220446e-16,0,-3.408268e-17,0,0,0,0,2.271584e-16,-5.11374e-18,1.16136e-16,36.467033,1.548481e-16,1.531719e-16,0,0,0,0,0,0
2.680801,0.208824,-10.852958,1.891618e-12,0,0,1.891618e-12,0,0,-7.243571e-18,0,0,0,0,7.243571e-18,-7.243571e-18,7.243571e-18,0,9.658094e-18,8.364155e-18,0,0,0,0,0,0
2.728091,0.208824,-10.844666,1.891618e-12,0,0,1.891618e-12,-1.110223e-16,2.220446e-16,-1.329888e-17,0,0,0,0,2.225748e-16,-1.115525e-16,1.670636e-16,-42.717106,2.227515e-16,1.964261e-16,0,0,0,0,0,0
2.775382,0.208824,-10.833593,1.891618e-12,0,0,1.891618e-12,2.220446e-16,2.220446e-16,-2.160862e-17,0,0,0,0,2.436532e-16,2.00436e-16,2.160862e-17,0,2.881149e-17,1.501179e-16,0,0,0,0,0,0
2.822672,0.208824,-10.819082,1.891618e-12,0,0,1.891618e-12,0,0,-1.994431e-18,0,0,0,0,1.994431e-18,-1.994431e-18,1.994431e-18,0,2.659241e-18,2.302971e-18,0,0,0,0,0,0
2.869963,0.208824,-10.800382,1.891618e-12,0,0,1.891618e-12,0,-1.110223e-16,-3.156583e-17,0,0,0,0,8.347204e-18,-1.193695e-16,6.385836e-17,30.187866,8.514447e-17,8.250295e-17,0,0,0,0,0,0
2.917253,0.208824,-10.778661,1.891618e-12,0,0,1.891618e-12,0,-1.110223e-16,-2.116535e-17,0,0,0,0,3.898108e-18,-1.149204e-16,5.940926e-17,34.564548,7.921234e-17,7.794547e-17,0,0,0,0,0,0
2.964544,0.208824,-10.755011,1.891618e-12,0,0,1.891618e-12,-1.110223e-16,0,-1.049589e-17,0,0,0,0,9.835527e-19,-1.120059e-16,5.64947e-17,-39.646538,7.532627e-17,7.500057e-17,0,0,0,0,0,0
3.011834,0.208824,-10.729551,1.891618e-12,0,0,1.891618e-12,-2.220446e-16,0,5.626386e-18,0,0,0,0,1.424755e-19,-2.221871e-16,1.111648e-16,-46.450577,1.482197e-16,1.481722e-16,0,0,0,0,0,0
3.059125,0.208824,-10.70151,1.891618e-12,0,0,1.891618e-12,0,-2.220446e-16,-6.385794e-18,0,0,0,0,1.834978e-19,-2.222281e-16,1.112058e-16,43.354042,1.482744e-16,1.482133e-16,0,0,0,0,0,0
3.106415,0.208824,-10.670297,1.891618e-12,0,0,1.891618e-12,2.220446e-16,2.220446e-16,-6.961553e-18,0,0,0,0,2.290062e-16,2.150831e-16,6.961553e-18,0,9.282071e-18,1.482478e-16,0,0,0,0,0,0
3.153705,0.208824,-10.635469,1.891618e-12,0,0,1.891618e-12,0,-1.110223e-16,2.721113e-17,0,0,0,0,6.310635e-18,-1.173329e-16,6.182178e-17,58.056862,8.242905e-17,8.040809e-17,0,0,0,0,0,0
3.200996,0.208824,-10.596058,1.891618e-12,0,0,1.891618e-12,-2.220446e-16,-1.110223e-16,-1.723191e-17,0,0,0,0,-1.084092e-16,-2.246577e-16,5.812423e-17,-36.377239,7.749898e-17,1.297325e-16,0,0,0,0,0,0
3.248286,0.208824,-10.552536,1.891618e-12,0,0,1.891618e-12,-2.220446e-16,-2.220446e-16,-2.063998e-17,0,0,0,0,-2.014046e-16,-2.426846e-16,2.063998e-17,0,2.751997e-17,1.49936e-16,0,0,0,0,0,0
3.295577,0.208824,-10.501624,1.891618e-12,0,0,1.891618e-12,-2.220446e-16,-1.110223e-16,1.313018e-18,0,0,0,0,-1.110068e-16,-2.220601e-16,5.552668e-17,-45.67749,7.403557e-17,1.282065e-16,0,0,0,0,0,0
3.342867,0.208824,-10.460085,1.891618e-12,0,0,1.891618e-12,2.220446e-16,2.220446e-16,-3.971238e-17,0,0,0,0,2.61757e-16,1.823322e-16,3.971238e-17,0,5.294983e-17,1.549696e-16,0,0,0,0,0,0
1.451249,0.161534,-10.112937,1.891618e-12,0,0,1.891618e-12,0,0,-9.704288e-18,0,0,0,0,9.704288e-18,-9.704288e-18,9.704288e-18,0,1.293905e-17,1.120555e-17,0,0,0,0,0,0
1.49854,0.161534,-10.210417,1.891618e-12,0,0,1.891618e-12,2.220446e-16,-2.220446e-16,5.913223e-17,0,0,0,0,2.297834e-16,-2.297834e-16,2.297834e-16,52.456112,3.063779e-16,2.653311e-16,0,0,0,0,0,0
1.54583,0.161534,-10.312257,1.891618e-12,0,0,1.891618e-12,0,2.220446e-16,2.885598e-17,0,0,0,0,2.257333e-16,-3.688723e-18,1.14711e-16,-52.284737,1.52948e-16,1.517334e-16,0,0,0,0,0,0
1.593121,0.161534,-10.3925,1.891618e-12,0,0,1.891618e-12,-1.110223e-16,2.220446e-16,-2.462033e-17,0,0,0,0,2.238547e-16,-1.128324e-16,1.683435e-16,-40.795151,2.244581e-16,1.978778e-16,0,0,0,0,0,0
1.640411,0.161534,-10.455568,1.891618e-12,0,0,1.891618e-12,-3.330669e-16,-2.220446e-16,-5.072111e-17,0,0,0,0,-2.023619e-16,-3.527496e-16,7.519387e-17,-23.790867,1.002585e-16,2.043956e-16,0,0,0,0,0,0
1.687701,0.161534,-10.508425,1.891618e-12,0,0,1.891618e-12,-5.551115e-16,2.220446e-16,-6.863993e-17,0,0,0,0,2.280604e-16,-5.611274e-16,3.945939e-16,-39.991196,5.261252e-16,4.689688e-16,0,0,0,0,0,0
1.734992,0.161534,-10.555933,1.891618e-12,0,0,1.891618e-12,0,-1.110223e-16,-1.042342e-17,0,0,0,0,9.701347e-19,-1.119924e-16,5.648129e-17,39.682655,7.530838e-17,7.498709e-17,0,0,0,0,0,0
1.782282,0.161534,-10.600024,1.891618e-12,0,0,1.891618e-12,2.220446e-16,0,9.50989e-18,0,0,0,0,2.224512e-16,-4.065521e-19,1.114289e-16,47.447929,1.485718e-16,1.484365e-16,0,0,0,0,0,0
1.829573,0.161534,-10.639697,1.891618e-12,0,0,1.891618e-12,0,0,-1.063928e-17,0,0,0,0,1.063928e-17,-1.063928e-17,1.063928e-17,0,1.418571e-17,1.228518e-17,0,0,0,0,0,0
1.876863,0.161534,-10.673795,1.891618e-12,0,0,1.891618e-12,0,2.220446e-16,-2.983591e-17,0,0,0,0,2.259837e-16,-3.93914e-18,1.149614e-16,-37.47892,1.532819e-16,1.519859e-16,0,0,0,0,0,0
1.924154,0.161534,-10.703971,1.891618e-12,0,0,1.891618e-12,4.440892e-16,2.220446e-16,-1.699926e-17,0,0,0,0,4.453831e-16,2.207507e-16,1.123162e-16,40.647362,1.497549e-16,2.571453e-16,0,0,0,0,0,0
1.971444,0.161534,-10.732608,1.891618e-12,0,0,1.891618e-12,0,0,1.267543e-17,0,0,0,0,1.267543e-17,-1.267543e-17,1.267543e-17,90,1.690057e-17,1.463633e-17,0,0,0,0,0,0
2.018735,0.161534,-10.76048,1.891618e-12,0,0,1.891618e-12,2.220446e-16,0,3.706054e-17,0,0,0,0,2.280669e-16,-6.022285e-18,1.170446e-16,54.229805,1.560595e-16,1.540913e-16,0,0,0,0,0,0
2.066025,0.161534,-10.786931,1.891618e-12,0,0,1.891618e-12,-1.110223e-16,2.220446e-16,-4.239907e-18,0,0,0,0,2.220986e-16,-1.110763e-16,1.665874e-16,-44.270786,2.221165e-16,1.958861e-16,0,0,0,0,0,0
2.113316,0.161534,-10.810353,1.891618e-12,0,0,1.891618e-12,0,2.220446e-16,-4.541363e-17,0,0,0,0,2.309737e-16,-8.929142e-18,1.199514e-16,-33.876503,1.599353e-16,1.570435e-16,0,0,0,0,0,0
2.160606,0.161534,-10.829692,1.891618e-12,0,0,1.891618e-12,2.220446e-16,-2.220446e-16,2.279323e-19,0,0,0,0,2.220447e-16,-2.220447e-16,2.220447e-16,45.029408,2.960596e-16,2.563952e-16,0,0,0,0,0,0
2.207896,0.161534,-10.846037,1.891618e-12,0,0,1.891618e-12,2.220446e-16,0,2.478438e-17,0,0,0,0,2.247774e-16,-2.732773e-18,1.137551e-16,51.292126,1.516734e-16,1.507708e-16,0,0,0,0,0,0
2.255187,0.161534,-10.858749,1.891618e-12,0,0,1.891618e-12,0,0,3.98039e-17,0,0,0,0,3.98039e-17,-3.98039e-17,3.98039e-17,90,5.307187e-17,4.596158e-17,0,0,0,0,0,0
2.302477,0.161534,-10.86761,1.891618e-12,0,0,1.891618e-12,2.220446e-16,0,5.848897e-17,0,0,0,0,2.36509e-16,-1.446439e-17,1.254867e-16,58.890621,1.673156e-16,1.627086e-16,0,0,0,0,0,0
2.349768,0.161534,-10.873707,1.891618e-12,0,0,1.891618e-12,-1.110223e-16,2.220446e-16,3.710457e-17,0,0,0,0,2.261281e-16,-1.151058e-16,1.706169e-16,-51.280327,2.274893e-16,2.004571e-16,0,0,0,0,0,0
2.397058,0.161534,-10.878224,1.891618e-12,0,0,1.891618e-12,0,2.220446e-16,-2.160072e-17,0,0,0,0,2.241264e-16,-2.081822e-18,1.131041e-16,-39.494984,1.508055e-16,1.501164e-16,0,0,0,0,0,0
2.444349,0.161534,-10.881027,1.891618e-12,0,0,1.891618e-12,0,2.220446e-16,7.34104e-17,0,0,0,0,2.441202e-16,-2.207555e-17,1.330979e-16,-61.736778,1.774638e-16,1.705821e-16,0,0,0,0,0,0
2.491639,0.161534,-10.881334,1.891618e-12,0,0,1.891618e-12,2.220446e-16,2.220446e-16,-2.187566e-18,0,0,0,0,2.242322e-16,2.19857e-16,2.187566e-18,0,2.916754e-18,1.480513e-16,0,0,0,0,0,0
2.53893,0.161534,-10.878445,1.891618e-12,0,0,1.891618e-12,-1.110223e-16,-1.110223e-16,2.451176e-17,0,0,0,0,-8.651054e-17,-1.355341e-16,2.451176e-17,90,3.268235e-17,7.924205e-17,0,0,0,0,0,0
2.58622,0.161534,-10.872638,1.891618e-12,0,0,1.891618e-12,-2.220446e-16,0,-7.340968e-18,0,0,0,0,2.424335e-19,-2.22287e-16,1.112647e-16,-43.108509,1.48353e-16,1.482722e-16,0,0,0,0,0,0
2.633511,0.161534,-10.866171,1.891618e-12,0,0,1.891618e-12,2.220446e-16,0,1.24787e-17,0,0,0,0,2.227437e-16,-6.990906e-19,1.117214e-16,48.206512,1.489619e-16,1.487294e-16,0,0,0,0,0,0
2.680801,0.161534,-10.859625,1.891618e-12,0,0,1.891618e-12,2.220446e-16,2.220446e-16,-1.631681e-17,0,0,0,0,2.383614e-16,2.057278e-16,1.631681e-17,0,2.175575e-17,1.49224e-16,0,0,0,0,0,0
2.728091,0.161534,-10.851682,1.891618e-12,0,0,1.891618e-12,-1.110223e-16,-1.110223e-16,1.658491e-17,0,0,0,0,-9.443739e-17,-1.276072e-16,1.658491e-17,90,2.211322e-17,7.645225e-17,0,0,0,0,0,0
2.775382,0.161534,-10.840501,1.891618e-12,0,0,1.891618e-12,-3.330669e-16,2.220446e-16,1.967342e-18,0,0,0,0,2.220516e-16,-3.330739e-16,2.775627e-16,-45.203056,3.700837e-16,3.226313e-16,0,0,0,0,0,0
2.822672,0.161534,-10.825749,1.891618e-12,0,0,1.891618e-12,-1.110223e-16,2.220446e-16,-3.663358e-17,0,0,0,0,2.260263e-16,-1.15004e-16,1.705151e-16,-38.796913,2.273535e-16,2.003416e-16,0,0,0,0,0,0
2.869963,0.161534,-10.806997,1.891618e-12,0,0,1.891618e-12,-1.110223e-16,-1.110223e-16,4.638592e-17,0,0,0,0,-6.463638e-17,-1.574082e-16,4.638592e-17,90,6.18479e-17,9.136231e-17,0,0,0,0,0,0
2.917253,0.161534,-10.785469,1.891618e-12,0,0,1.891618e-12,-2.220446e-16,0,-2.573687e-17,0,0,0,0,2.944088e-18,-2.249887e-16,1.139664e-16,-38.474197,1.519552e-16,1.509834e-16,0,0,0,0,0,0
2.964544,0.161534,-10.761952,1.891618e-12,0,0,1.891618e-12,0,2.220446e-16,1.092052e-17,0,0,0,0,2.225804e-16,-5.357963e-19,1.115581e-16,-47.808865,1.487441e-16,1.485659e-16,0,0,0,0,0,0
3.011834,0.161534,-10.736588,1.891618e-12,0,0,1.891618e-12,-1.110223e-16,-2.220446e-16,-4.456318e-18,0,0,0,0,-1.108437e-16,-2.222232e-16,5.568974e-17,42.705128,7.425298e-17,1.283007e-16,0,0,0,0,0,0
3.059125,0.161534,-10.708371,1.891618e-12,0,0,1.891618e-12,-1.110223e-16,2.220446e-16,8.456975e-18,0,0,0,0,2.222592e-16,-1.112369e-16,1.66748e-16,-46.45356,2.223307e-16,1.960683e-16,0,0,0,0,0,0
3.106415,0.161534,-10.676579,1.891618e-12,0,0,1.891618e-12,0,2.220446e-16,-2.71868e-17,0,0,0,0,2.253248e-16,-3.28025e-18,1.143026e-16,-38.120178,1.524034e-16,1.513218e-16,0,0,0,0,0,0
3.153705,0.161534,-10.640869,1.891618e-12,0,0,1.891618e-12,2.220446e-16,0,-3.527501e-18,0,0,0,0,2.221006e-16,-5.602532e-20,1.110783e-16,44.09008,1.481044e-16,1.480858e-16,0,0,0,0,0,0
3.200996,0.161534,-10.600689,1.891618e-12,0,0,1.891618e-12,2.220446e-16,0,-4.72904e-18,0,0,0,0,2.221453e-16,-1.00672e-19,1.11123e-16,43.780468,1.48164e-16,1.481304e-16,0,0,0,0,0,0
3.248286,0.161534,-10.556793,1.891618e-12,0,0,1.891618e-12,2.220446e-16,2.220446e-16,8.507468e-20,0,0,0,0,2.221297e-16,2.219595e-16,8.507468e-20,90,1.134329e-19,1.480298e-16,0,0,0,0,0,0
3.295577,0.161534,-10.506898,1.891618e-12,0,0,1.891618e-12,0,2.220446e-16,-4.160411e-17,0,0,0,0,2.295839e-16,-7.5393e-18,1.185616e-16,-34.728596,1.580821e-16,1.556299e-16,0,0,0,0,0,0
3.342867,0.161534,-10.467598,1.891618e-12,0,0,1.891618e-12,-3.330669e-16,0,2.138843e-17,0,0,0,0,1.367875e-18,-3.344348e-16,1.679013e-16,-48.659309,2.238684e-16,2.234139e-16,0,0,0,0,0,0
1.451249,0.114243,-10.109878,1.891618e-12,0,0,1.891618e-12,0,2.220446e-16,-4.24379e-17,0,0,0,0,2.298791e-16,-7.834448e-18,1.188567e-16,-34.540405,1.584757e-16,1.559298e-16,0,0,0,0,0,0
1.49854,0.114243,-10.210699,1.891618e-12,0,0,1.891618e-12,-1.110223e-16,2.220446e-16,2.433332e-17,0,0,0,0,2.23813e-16,-1.127907e-16,1.683018e-16,-49.156521,2.244024e-16,1.978304e-16,0,0,0,0,0,0
1.54583,0.114243,-10.314274,1.891618e-12,0,0,1.891618e-12,0,-1.110223e-16,4.696818e-17,0,0,0,0,1.720403e-17,-1.282263e-16,7.271518e-17,65.11734,9.695358e-17,9.175809e-17,0,0,0,0,0,0
1.593121,0.114243,-10.395522,1.891618e-12,0,0,1.891618e-12,-1.110223e-16,-2.220446e-16,-3.732563e-17,0,0,0,0,-9.964033e-17,-2.334266e-16,6.689312e-17,28.041582,8.919084e-17,1.352487e-16,0,0,0,0,0,0
1.640411,0.114243,-10.459954,1.891618e-12,0,0,1.891618e-12,2.220446e-16,2.220446e-16,3.192483e-17,0,0,0,0,2.539694e-16,1.901198e-16,3.192483e-17,90,4.256645e-17,1.525507e-16,0,0,0,0,0,0
1.687701,0.114243,-10.513209,1.891618e-12,0,0,1.891618e-12,0,-1.110223e-16,-1.013017e-17,0,0,0,0,9.167511e-19,-1.119391e-16,5.642791e-17,39.828979,7.523721e-17,7.493349e-17,0,0,0,0,0,0
1.734992,0.114243,-10.560286,1.891618e-12,0,0,1.891618e-12,-2.220446e-16,-2.220446e-16,1.112776e-17,0,0,0,0,-2.109168e-16,-2.331724e-16,1.112776e-17,90,1.483702e-17,1.485864e-16,0,0,0,0,0,0
1.782282,0.114243,-10.603906,1.891618e-12,0,0,1.891618e-12,0,-1.110223e-16,2.080785e-17,0,0,0,0,3.771685e-18,-1.14794e-16,5.928284e-17,55.274029,7.904378e-17,7.781703e-17,0,0,0,0,0,0
1.829573,0.114243,-10.642846,1.891618e-12,0,0,1.891618e-12,-2.220446e-16,2.220446e-16,-2.079483e-17,0,0,0,0,2.230162e-16,-2.230162e-16,2.230162e-16,-42.324883,2.973549e-16,2.575169e-16,0,0,0,0,0,0
1.876863,0.114243,-10.6764,1.891618e-12,0,0,1.891618e-12,0,-1.110223e-16,1.898949e-17,0,0,0,0,3.158164e-18,-1.141805e-16,5.866931e-17,54.442505,7.822576e-17,7.719457e-17,0,0,0,0,0,0
1.924154,0.114243,-10.706263,1.891618e-12,0,0,1.891618e-12,0,0,9.421934e-18,0,0,0,0,9.421934e-18,-9.421934e-18,9.421934e-18,90,1.256258e-17,1.087951e-17,0,0,0,0,0,0
1.971444,0.114243,-10.734787,1.891618e-12,0,0,1.891618e-12,-1.110223e-16,-4.440892e-16,2.267447e-17,0,0,0,0,-1.094858e-16,-4.456257e-16,1.6807e-16,48.876732,2.240933e-16,2.681457e-16,0,0,0,0,0,0
2.018735,0.114243,-10.762772,1.891618e-12,0,0,1.891618e-12,2.220446e-16,-4.440892e-16,-1.263527e-17,0,0,0,0,2.222842e-16,-4.443288e-16,3.333065e-16,43.913731,4.444086e-16,3.919215e-16,0,0,0,0,0,0
2.066025,0.114243,-10.789286,1.891618e-12,0,0,1.891618e-12,-1.110223e-16,-1.110223e-16,-3.881373e-17,0,0,0,0,-7.220857e-17,-1.49836e-16,3.881373e-17,0,5.175164e-17,8.652673e-17,0,0,0,0,0,0
2.113316,0.114243,-10.811873,1.891618e-12,0,0,1.891618e-12,2.220446e-16,0,5.985446e-18,0,0,0,0,2.222058e-16,-1.612269e-19,1.111835e-16,46.542973,1.482447e-16,1.48191e-16,0,0,0,0,0,0
2.160606,0.114243,-10.829565,1.891618e-12,0,0,1.891618e-12,-1.110223e-16,2.220446e-16,-4.614486e-17,0,0,0,0,2.283195e-16,-1.172972e-16,1.728084e-16,-37.256222,2.304112e-16,2.029447e-16,0,0,0,0,0,0
2.207896,0.114243,-10.843956,1.891618e-12,0,0,1.891618e-12,-1.110223e-16,0,-1.284071e-17,0,0,0,0,1.465789e-18,-1.124881e-16,5.697694e-17,-38.487778,7.596925e-17,7.54854e-17,0,0,0,0,0,0
2.255187,0.114243,-10.855165,1.891618e-12,0,0,1.891618e-12,0,-1.110223e-16,2.681628e-17,0,0,0,0,6.137863e-18,-1.171602e-16,6.164902e-17,57.892113,8.219868e-17,8.023103e-17,0,0,0,0,0,0
2.302477,0.114243,-10.863956,1.891618e-12,0,0,1.891618e-12,-1.110223e-16,2.220446e-16,2.293559e-17,0,0,0,0,2.236166e-16,-1.125943e-16,1.681054e-16,-48.920826,2.241406e-16,1.976077e-16,0,0,0,0,0,0
2.349768,0.114243,-10.871218,1.891618e-12,0,0,1.891618e-12,-1.110223e-16,0,1.649618e-17,0,0,0,0,2.399225e-18,-1.134215e-16,5.791038e-17,-53.27515,7.721384e-17,7.642664e-17,0,0,0,0,0,0
2.397058,0.114243,-10.877353,1.891618e-12,0,0,1.891618e-12,0,2.220446e-16,-9.902019e-18,0,0,0,0,2.224853e-16,-4.407031e-19,1.11463e-16,-42.451653,1.486173e-16,1.484707e-16,0,0,0,0,0,0
2.444349,0.114243,-10.881447,1.891618e-12,0,0,1.891618e-12,-1.110223e-16,2.220446e-16,-3.721643e-17,0,0,0,0,2.261525e-16,-1.151301e-16,1.706413e-16,-38.701344,2.275217e-16,2.004848e-16,0,0,0,0,0,0
2.491639,0.114243,-10.882949,1.891618e-12,0,0,1.891618e-12,2.220446e-16,2.220446e-16,3.342161e-17,0,0,0,0,2.554662e-16,1.88623e-16,3.342161e-17,90,4.456215e-17,1.529776e-16,0,0,0,0,0,0
2.53893,0.114243,-10.880887,1.891618e-12,0,0,1.891618e-12,-2.220446e-16,2.220446e-16,3.465474e-18,0,0,0,0,2.220717e-16,-2.220717e-16,2.220717e-16,-45.447075,2.960955e-16,2.564263e-16,0,0,0,0,0,0
2.58622,0.114243,-10.876188,1.891618e-12,0,0,1.891618e-12,0,2.220446e-16,-2.114713e-18,0,0,0,0,2.220647e-16,-2.013832e-20,1.110424e-16,-44.454391,1.480566e-16,1.480499e-16,0,0,0,0,0,0
2.633511,0.114243,-10.870765,1.891618e-12,0,0,1.891618e-12,-1.110223e-16,-2.220446e-16,1.321659e-17,0,0,0,0,-1.094706e-16,-2.235963e-16,5.706283e-17,51.696079,7.608377e-17,1.291027e-16,0,0,0,0,0,0
2.680801,0.114243,-10.864904,1.891618e-12,0,0,1.891618e-12,-1.110223e-16,0,-9.864379e-18,0,0,0,0,8.696423e-19,-1.118919e-16,5.63808e-17,-39.961838,7.517439e-17,7.48862e-17,0,0,0,0,0,0
2.728091,0.114243,-10.857212,1.891618e-12,0,0,1.891618e-12,2.220446e-16,-1.110223e-16,-7.955014e-18,0,0,0,0,2.222345e-16,-1.112122e-16,1.667233e-16,43.63258,2.222978e-16,1.960403e-16,0,0,0,0,0,0
2.775382,0.114243,-10.846102,1.891618e-12,0,0,1.891618e-12,0,0,3.058582e-17,0,0,0,0,3.058582e-17,-3.058582e-17,3.058582e-17,90,4.078109e-17,3.531746e-17,0,0,0,0,0,0
2.822672,0.114243,-10.831347,1.891618e-12,0,0,1.891618e-12,2.220446e-16,-1.110223e-16,-1.476625e-17,0,0,0,0,2.22698e-16,-1.116757e-16,1.671868e-16,42.466465,2.229158e-16,1.965658e-16,0,0,0,0,0,0
2.869963,0.114243,-10.812942,1.891618e-12,0,0,1.891618e-12,2.220446e-16,2.220446e-16,-1.249975e-17,0,0,0,0,2.345443e-16,2.095449e-16,1.249975e-17,0,1.666633e-17,1.487317e-16,0,0,0,0,0,0
2.917253,0.114243,-10.791859,1.891618e-12,0,0,1.891618e-12,0,4.440892e-16,2.840761e-18,0,0,0,0,4.441074e-16,-1.817111e-20,2.220628e-16,-45.366489,2.960837e-16,2.960776e-16,0,0,0,0,0,0
2.964544,0.114243,-10.768724,1.891618e-12,0,0,1.891618e-12,2.220446e-16,0,-1.67947e-18,0,0,0,0,2.220573e-16,-1.270222e-20,1.11035e-16,44.566666,1.480467e-16,1.480424e-16,0,0,0,0,0,0
3.011834,0.114243,-10.743522,1.891618e-12,0,0,1.891618e-12,-2.220446e-16,0,-2.786299e-18,0,0,0,0,3.495802e-20,-2.220796e-16,1.110573e-16,-44.281181,1.480763e-16,1.480647e-16,0,0,0,0,0,0
3.059125,0.114243,-10.715236,1.891618e-12,0,0,1.891618e-12,0,2.220446e-16,8.384851e-18,0,0,0,0,2.223608e-16,-3.161786e-19,1.113385e-16,-47.159504,1.484513e-16,1.48346e-16,0,0,0,0,0,0
3.106415,0.114243,-10.683091,1.891618e-12,0,0,1.891618e-12,0,-1.110223e-16,2.282948e-17,0,0,0,0,4.511122e-18,-1.155334e-16,6.002227e-17,56.177689,8.00297e-17,7.856917e-17,0,0,0,0,0,0
3.153705,0.114243,-10.646841,1.891618e-12,0,0,1.891618e-12,2.220446e-16,2.220446e-16,-5.245294e-17,0,0,0,0,2.744975e-16,1.695917e-16,5.245294e-17,0,6.993725e-17,1.599413e-16,0,0,0,0,0,0
3.200996,0.114243,-10.606256,1.891618e-12,0,0,1.891618e-12,0,2.220446e-16,-2.935262e-17,0,0,0,0,2.258593e-16,-3.814659e-18,1.14837e-16,-37.595356,1.531159e-16,1.518604e-16,0,0,0,0,0,0
3.248286,0.114243,-10.561609,1.891618e-12,0,0,1.891618e-12,0,2.220446e-16,-2.044623e-18,0,0,0,0,2.220634e-16,-1.882563e-20,1.110411e-16,-44.472469,1.480548e-16,1.480486e-16,0,0,0,0,0,0
3.295577,0.114243,-10.512984,1.891618e-12,0,0,1.891618e-12,0,-1.110223e-16,1.53673e-19,0,0,0,0,2.127082e-22,-1.110225e-16,5.551136e-17,45.079308,7.401516e-17,7.401508e-17,0,0,0,0,0,0
3.342867,0.114243,-10.476058,1.891618e-12,0,0,1.891618e-12,0,-1.110223e-16,-1.917443e-17,0,0,0,0,3.218284e-18,-1.142406e-16,5.872943e-17,35.472141,7.830591e-17,7.72555e-17,0,0,0,0,0,0
1.451249,0.066953,-10.109554,1.891618e-12,0,0,1.891618e-12,2.220446e-16,2.220446e-16,5.560229e-18,0,0,0,0,2.276048e-16,2.164844e-16,5.560229e-18,90,7.413639e-18,1.481689e-16,0,0,0,0,0,0
1.49854,0.066953,-10.212627,1.891618e-12,0,0,1.891618e-12,2.220446e-16,-2.220446e-16,-2.063467e-19,0,0,0,0,2.220447e-16,-2.220447e-16,2.220447e-16,44.973377,2.960596e-16,2.563951e-16,0,0,0,0,0,0
1.54583,0.066953,-10.317808,1.891618e-12,0,0,1.891618e-12,2.220446e-16,2.220446e-16,-2.651808e-17,0,0,0,0,2.485627e-16,1.955265e-16,2.651808e-17,0,3.535743e-17,1.511635e-16,0,0,0,0,0,0
1.593121,0.066953,-10.400572,1.891618e-12,0,0,1.891618e-12,2.220446e-16,-1.110223e-16,2.477718e-17,0,0,0,0,2.238777e-16,-1.128554e-16,1.683666e-16,49.231251,2.244887e-16,1.979039e-16,0,0,0,0,0,0
1.640411,0.066953,-10.466178,1.891618e-12,0,0,1.891618e-12,0,0,-2.064014e-17,0,0,0,0,2.064014e-17,-2.064014e-17,2.064014e-17,0,2.752018e-17,2.383318e-17,0,0,0,0,0,0
1.687701,0.066953,-10.519936,1.891618e-12,0,0,1.891618e-12,2.220446e-16,0,-2.24953e-17,0,0,0,0,2.243007e-16,-2.256072e-18,1.132784e-16,39.272907,1.510378e-16,1.502915e-16,0,0,0,0,0,0
1.734992,0.066953,-10.567288,1.891618e-12,0,0,1.891618e-12,2.220446e-16,2.220446e-16,4.285765e-19,0,0,0,0,2.224732e-16,2.21616e-16,4.285765e-19,90,5.714353e-19,1.480306e-16,0,0,0,0,0,0
1.782282,0.066953,-10.610815,1.891618e-12,0,0,1.891618e-12,-2.220446e-16,-1.110223e-16,-4.432193e-17,0,0,0,0,-9.549881e-17,-2.375681e-16,7.103464e-17,-25.697493,9.471286e-17,1.380357e-16,0,0,0,0,0,0
1.829573,0.066953,-10.649053,1.891618e-12,0,0,1.891618e-12,4.440892e-16,-1.110223e-16,-8.169823e-19,0,0,0,0,4.440904e-16,-1.110235e-16,2.775569e-16,44.915676,3.700759e-16,3.391801e-16,0,0,0,0,0,0
1.876863,0.066953,-10.681891,1.891618e-12,0,0,1.891618e-12,0,2.220446e-16,3.265444e-17,0,0,0,0,2.267473e-16,-4.702648e-18,1.157249e-16,-53.194965,1.542999e-16,1.527565e-16,0,0,0,0,0,0
1.924154,0.066953,-10.711025,1.891618e-12,0,0,1.891618e-12,0,-2.220446e-16,-1.590181e-17,0,0,0,0,1.133033e-18,-2.231776e-16,1.121553e-16,40.924461,1.495405e-16,1.491642e-16,0,0,0,0,0,0
1.971444,0.066953,-10.738895,1.891618e-12,0,0,1.891618e-12,-2.220446e-16,0,-1.928179e-17,0,0,0,0,1.661943e-18,-2.237065e-16,1.126842e-16,-40.073719,1.502457e-16,1.496948e-16,0,0,0,0,0,0
2.018735,0.066953,-10.766535,1.891618e-12,0,0,1.891618e-12,-1.110223e-16,-1.110223e-16,2.967996e-17,0,0,0,0,-8.134234e-17,-1.407023e-16,2.967996e-17,90,3.957328e-17,8.15643e-17,0,0,0,0,0,0
2.066025,0.066953,-10.792434,1.891618e-12,0,0,1.891618e-12,2.220446e-16,0,3.44678e-17,0,0,0,0,2.27272e-16,-5.227348e-18,1.162496e-16,53.623695,1.549995e-16,1.532868e-16,0,0,0,0,0,0
2.113316,0.066953,-10.814032,1.891618e-12,0,0,1.891618e-12,0,-1.110223e-16,9.80391e-18,0,0,0,0,8.590942e-19,-1.118814e-16,5.637025e-17,50.007908,7.516033e-17,7.487561e-17,0,0,0,0,0,0
2.160606,0.066953,-10.830385,1.891618e-12,0,0,1.891618e-12,2.220446e-16,2.220446e-16,-1.769696e-17,0,0,0,0,2.397416e-16,2.043477e-16,1.769696e-17,0,2.359594e-17,1.494335e-16,0,0,0,0,0,0
2.207896,0.066953,-10.843259,1.891618e-12,0,0,1.891618e-12,-2.220446e-16,-1.110223e-16,7.491992e-18,0,0,0,0,-1.10519e-16,-2.225479e-16,5.601444e-17,-48.843204,7.468593e-17,1.284891e-16,0,0,0,0,0,0
2.255187,0.066953,-10.853396,1.891618e-12,0,0,1.891618e-12,-2.220446e-16,0,1.687032e-17,0,0,0,0,1.274445e-18,-2.23319e-16,1.122967e-16,-49.320122,1.49729e-16,1.49306e-16,0,0,0,0,0,0
2.302477,0.066953,-10.861987,1.891618e-12,0,0,1.891618e-12,2.220446e-16,-1.110223e-16,5.923578e-18,0,0,0,0,2.221499e-16,-1.111276e-16,1.666388e-16,46.018574,2.22185e-16,1.959444e-16,0,0,0,0,0,0
2.349768,0.066953,-10.869637,1.891618e-12,0,0,1.891618e-12,-1.110223e-16,0,2.619228e-17,0,0,0,0,5.869004e-18,-1.168913e-16,6.138016e-17,-57.629864,8.18402e-17,7.995571e-17,0,0,0,0,0,0
2.397058,0.066953,-10.876543,1.891618e-12,0,0,1.891618e-12,-1.110223e-16,-1.110223e-16,1.592183e-17,0,0,0,0,-9.510047e-17,-1.269441e-16,1.592183e-17,90,2.122911e-17,7.626406e-17,0,0,0,0,0,0
2.444349,0.066953,-10.881167,1.891618e-12,0,0,1.891618e-12,0,0,3.393632e-17,0,0,0,0,3.393632e-17,-3.393632e-17,3.393632e-17,90,4.524842e-17,3.918629e-17,0,0,0,0,0,0
2.491639,0.066953,-10.8833,1.891618e-12,0,0,1.891618e-12,-1.110223e-16,2.220446e-16,3.139718e-17,0,0,0,0,2.249785e-16,-1.139562e-16,1.694673e-16,-50.338432,2.259564e-16,1.991527e-16,0,0,0,0,0,0
2.53893,0.066953,-10.881956,1.891618e-12,0,0,1.891618e-12,-1.110223e-16,-1.110223e-16,4.789788e-18,0,0,0,0,-1.062325e-16,-1.158121e-16,4.789788e-18,90,6.386384e-18,7.422122e-17,0,0,0,0,0,0
2.58622,0.066953,-10.877967,1.891618e-12,0,0,1.891618e-12,0,0,4.984813e-18,0,0,0,0,4.984813e-18,-4.984813e-18,4.984813e-18,90,6.646417e-18,5.755966e-18,0,0,0,0,0,0
2.633511,0.066953,-10.873044,1.891618e-12,0,0,1.891618e-12,-1.110223e-16,-1.110223e-16,2.702248e-17,0,0,0,0,-8.399982e-17,-1.380448e-16,2.702248e-17,90,3.602998e-17,8.032322e-17,0,0,0,0,0,0
2.680801,0.066953,-10.867282,1.891618e-12,0,0,1.891618e-12,0,2.220446e-16,5.555833e-17,0,0,0,0,2.351701e-16,-1.312551e-17,1.241478e-16,-58.292263,1.655304e-16,1.613333e-16,0,0,0,0,0,0
2.728091,0.066953,-10.85935,1.891618e-12,0,0,1.891618e-12,0,-1.110223e-16,2.730984e-17,0,0,0,0,6.35415e-18,-1.173765e-16,6.18653e-17,58.097912,8.248707e-17,8.04527e-17,0,0,0,0,0,0
2.775382,0.066953,-10.848335,1.891618e-12,0,0,1.891618e-12,-2.220446e-16,0,-2.618535e-17,0,0,0,0,3.046204e-18,-2.250908e-16,1.140685e-16,-38.364471,1.520913e-16,1.510862e-16,0,0,0,0,0,0
2.822672,0.066953,-10.834075,1.891618e-12,0,0,1.891618e-12,0,2.220446e-16,-2.404691e-17,0,0,0,0,2.24619e-16,-2.574376e-18,1.135967e-16,-38.889393,1.514622e-16,1.506114e-16,0,0,0,0,0,0
2.869963,0.066953,-10.816486,1.891618e-12,0,0,1.891618e-12,-2.220446e-16,2.220446e-16,5.851004e-18,0,0,0,0,2.221217e-16,-2.221217e-16,2.221217e-16,-45.754715,2.961622e-16,2.56484e-16,0,0,0,0,0,0
2.917253,0.066953,-10.796191,1.891618e-12,0,0,1.891618e-12,2.220446e-16,-1.110223e-16,-3.298625e-18,0,0,0,0,2.220773e-16,-1.11055e-16,1.665661e-16,44.432629,2.220881e-16,1.95862e-16,0,0,0,0,0,0
2.964544,0.066953,-10.773566,1.891618e-12,0,0,1.891618e-12,2.220446e-16,0,1.851087e-17,0,0,0,0,2.235772e-16,-1.532591e-18,1.125549e-16,49.732956,1.500732e-16,1.495649e-16,0,0,0,0,0,0
3.011834,0.066953,-10.748562,1.891618e-12,0,0,1.891618e-12,2.220446e-16,2.220446e-16,-4.96271e-19,0,0,0,0,2.225409e-16,2.215483e-16,4.96271e-19,0,6.616947e-19,1.480308e-16,0,0,0,0,0,0
3.059125,0.066953,-10.720367,1.891618e-12,0,0,1.891618e-12,-2.220446e-16,-1.110223e-16,1.833171e-17,0,0,0,0,-1.080737e-16,-2.249932e-16,5.845973e-17,-54.137505,7.79463e-17,1.299333e-16,0,0,0,0,0,0
3.106415,0.066953,-10.688107,1.891618e-12,0,0,1.891618e-12,-2.220446e-16,2.220446e-16,1.368184e-17,0,0,0,0,2.224657e-16,-2.224657e-16,2.224657e-16,-46.762981,2.96621e-16,2.568813e-16,0,0,0,0,0,0
3.153705,0.066953,-10.651239,1.891618e-12,0,0,1.891618e-12,2.220446e-16,-2.220446e-16,6.884334e-18,0,0,0,0,2.221513e-16,-2.221513e-16,2.221513e-16,45.887924,2.962017e-16,2.565182e-16,0,0,0,0,0,0
3.200996,0.066953,-10.610152,1.891618e-12,0,0,1.891618e-12,-2.220446e-16,0,-3.092239e-17,0,0,0,0,4.22589e-18,-2.262705e-16,1.152482e-16,-37.218098,1.536643e-16,1.522752e-16,0,0,0,0,0,0
3.248286,0.066953,-10.565512,1.891618e-12,0,0,1.891618e-12,2.220446e-16,2.220446e-16,-2.98639e-17,0,0,0,0,2.519085e-16,1.921807e-16,2.98639e-17,0,3.981853e-17,1.519932e-16,0,0,0,0,0,0
3.295577,0.066953,-10.517506,1.891618e-12,0,0,1.891618e-12,-2.220446e-16,-1.110223e-16,-1.294374e-17,0,0,0,0,-1.095332e-16,-2.235337e-16,5.700025e-17,-38.437325,7.600033e-17,1.290658e-16,0,0,0,0,0,0
3.342867,0.066953,-10.482155,1.891618e-12,0,0,1.891618e-12,2.220446e-16,2.220446e-16,-4.487835e-17,0,0,0,0,2.66923e-16,1.771663e-16,4.487835e-17,0,5.98378e-17,1.568382e-16,0,0,0,0,0,0
1.451249,0.019662,-10.110121,1.891618e-12,0,0,1.891618e-12,0,2.220446e-16,-2.193775e-17,0,0,0,0,2.241913e-16,-2.146671e-18,1.13169e-16,-39.41124,1.50892e-16,1.501815e-16,0,0,0,0,0,0
1.49854,0.019662,-10.215731,1.891618e-12,0,0,1.891618e-12,-2.220446e-16,-2.220446e-16,-1.154333e-17,0,0,0,0,-2.105013e-16,-2.335879e-16,1.154333e-17,0,1.539111e-17,1.486286e-16,0,0,0,0,0,0
1.54583,0.019662,-10.322262,1.891618e-12,0,0,1.891618e-12,-2.220446e-16,0,-7.567157e-17,0,0,0,0,2.333595e-17,-2.453805e-16,1.343582e-16,-27.861044,1.791443e-16,1.718945e-16,0,0,0,0,0,0
1.593121,0.019662,-10.406137,1.891618e-12,0,0,1.891618e-12,0,2.220446e-16,-2.502109e-17,0,0,0,0,2.248292e-16,-2.78458e-18,1.138069e-16,-38.649723,1.517425e-16,1.508229e-16,0,0,0,0,0,0
1.640411,0.019662,-10.471804,1.891618e-12,0,0,1.891618e-12,2.220446e-16,0,-3.186683e-17,0,0,0,0,2.265275e-16,-4.482877e-18,1.155052e-16,36.992443,1.540069e-16,1.525346e-16,0,0,0,0,0,0
1.687701,0.019662,-10.526231,1.891618e-12,0,0,1.891618e-12,0,2.220446e-16,-8.999497e-19,0,0,0,0,2.220483e-16,-3.647448e-21,1.11026e-16,-44.767784,1.480346e-16,1.480334e-16,0,0,0,0,0,0
1.734992,0.019662,-10.574282,1.891618e-12,0,0,1.891618e-12,0,0,7.861357e-18,0,0,0,0,7.861357e-18,-7.861357e-18,7.861357e-18,90,1.048181e-17,9.077513e-18,0,0,0,0,0,0
1.782282,0.019662,-10.617946,1.891618e-12,0,0,1.891618e-12,2.220446e-16,2.220446e-16,4.092424e-17,0,0,0,0,2.629688e-16,1.811204e-16,4.092424e-17,90,5.456565e-17,1.553894e-16,0,0,0,0,0,0
1.829573,0.019662,-10.655732,1.891618e-12,0,0,1.891618e-12,-2.220446e-16,0,1.466627e-18,0,0,0,0,9.686802e-21,-2.220543e-16,1.11032e-16,-45.378422,1.480427e-16,1.480394e-16,0,0,0,0,0,0
1.876863,0.019662,-10.687734,1.891618e-12,0,0,1.891618e-12,-1.110223e-16,0,-3.383952e-18,0,0,0,0,1.03047e-19,-1.111253e-16,5.56142e-17,-43.255787,7.415226e-17,7.411794e-17,0,0,0,0,0,0
1.924154,0.019662,-10.716095,1.891618e-12,0,0,1.891618e-12,2.220446e-16,0,3.180341e-17,0,0,0,0,2.2651e-16,-4.465398e-18,1.154877e-16,52.992435,1.539836e-16,1.525169e-16,0,0,0,0,0,0
1.971444,0.019662,-10.743368,1.891618e-12,0,0,1.891618e-12,-1.110223e-16,2.220446e-16,-5.147059e-18,0,0,0,0,2.221241e-16,-1.111018e-16,1.66613e-16,-44.114861,2.221506e-16,1.959151e-16,0,0,0,0,0,0
2.018735,0.019662,-10.770647,1.891618e-12,0,0,1.891618e-12,-1.110223e-16,-1.110223e-16,-6.356589e-17,0,0,0,0,-4.745641e-17,-1.745882e-16,6.356589e-17,0,8.475451e-17,1.042387e-16,0,0,0,0,0,0
2.066025,0.019662,-10.795943,1.891618e-12,0,0,1.891618e-12,0,2.220446e-16,2.693374e-18,0,0,0,0,2.220773e-16,-3.266549e-20,1.11055e-16,-45.694855,1.480733e-16,1.480624e-16,0,0,0,0,0,0
2.113316,0.019662,-10.81703,1.891618e-12,0,0,1.891618e-12,2.220446e-16,0,-3.489562e-17,0,0,0,0,2.273995e-16,-5.35491e-18,1.163772e-16,36.275726,1.551696e-16,1.534158e-16,0,0,0,0,0,0
2.160606,0.019662,-10.832801,1.891618e-12,0,0,1.891618e-12,2.220446e-16,-1.110223e-16,-1.576589e-17,0,0,0,0,2.227892e-16,-1.117669e-16,1.672781e-16,42.295937,2.230374e-16,1.966693e-16,0,0,0,0,0,0
2.207896,0.019662,-10.845093,1.891618e-12,0,0,1.891618e-12,0,-1.110223e-16,-1.610914e-17,0,0,0,0,2.290165e-18,-1.133125e-16,5.780132e-17,36.90873,7.706842e-17,7.631649e-17,0,0,0,0,0,0
2.255187,0.019662,-10.854961,1.891618e-12,0,0,1.891618e-12,0,-1.110223e-16,4.803405e-18,0,0,0,0,2.074329e-19,-1.112297e-16,5.571858e-17,47.472755,7.429145e-17,7.42224e-17,0,0,0,0,0,0
2.302477,0.019662,-10.863374,1.891618e-12,0,0,1.891618e-12,2.220446e-16,-1.110223e-16,3.688703e-17,0,0,0,0,2.260809e-16,-1.150586e-16,1.705698e-16,51.244663,2.274264e-16,2.004036e-16,0,0,0,0,0,0
2.349768,0.019662,-10.870817,1.891618e-12,0,0,1.891618e-12,-2.220446e-16,-2.220446e-16,1.953406e-17,0,0,0,0,-2.025105e-16,-2.415787e-16,1.953406e-17,90,2.604541e-17,1.497384e-16,0,0,0,0,0,0
2.397058,0.019662,-10.877619,1.891618e-12,0,0,1.891618e-12,2.220446e-16,0,-1.397691e-17,0,0,0,0,2.229209e-16,-8.76338e-19,1.118986e-16,41.412312,1.491982e-16,1.489069e-16,0,0,0,0,0,0
2.444349,0.019662,-10.882108,1.891618e-12,0,0,1.891618e-12,-1.110223e-16,2.220446e-16,4.732629e-17,0,0,0,0,2.286388e-16,-1.176165e-16,1.731276e-16,-52.932175,2.308368e-16,2.033071e-16,0,0,0,0,0,0
2.491639,0.019662,-10.884277,1.891618e-12,0,0,1.891618e-12,-1.110223e-16,2.220446e-16,5.177799e-17,0,0,0,0,2.299082e-16,-1.18886e-16,1.743971e-16,-53.635666,2.325295e-16,2.047487e-16,0,0,0,0,0,0
2.53893,0.019662,-10.883297,1.891618e-12,0,0,1.891618e-12,2.220446e-16,0,3.900527e-18,0,0,0,0,2.221131e-16,-6.849712e-20,1.110908e-16,46.006069,1.481211e-16,1.480982e-16,0,0,0,0,0,0
2.58622,0.019662,-10.879248,1.891618e-12,0,0,1.891618e-12,2.220446e-16,-2.220446e-16,-2.421798e-17,0,0,0,0,2.233614e-16,-2.233614e-16,2.233614e-16,41.88773,2.978152e-16,2.579155e-16,0,0,0,0,0,0
2.633511,0.019662,-10.87389,1.891618e-12,0,0,1.891618e-12,0,-1.110223e-16,-4.522758e-17,0,0,0,0,1.609207e-17,-1.271144e-16,7.160322e-17,25.41433,9.547096e-17,9.058465e-17,0,0,0,0,0,0
2.680801,0.019662,-10.867329,1.891618e-12,0,0,1.891618e-12,-2.220446e-16,-1.110223e-16,-6.510619e-18,0,0,0,0,-1.106418e-16,-2.224251e-16,5.589165e-17,-41.655315,7.45222e-17,1.284178e-16,0,0,0,0,0,0
2.728091,0.019662,-10.85871,1.891618e-12,0,0,1.891618e-12,-1.110223e-16,2.220446e-16,4.662717e-18,0,0,0,0,2.221099e-16,-1.110876e-16,1.665987e-16,-45.801895,2.221316e-16,1.958989e-16,0,0,0,0,0,0
2.775382,0.019662,-10.847819,1.891618e-12,0,0,1.891618e-12,2.220446e-16,0,-2.019475e-17,0,0,0,0,2.238664e-16,-1.821748e-18,1.12844e-16,39.84536,1.504587e-16,1.498552e-16,0,0,0,0,0,0
2.822672,0.019662,-10.834346,1.891618e-12,0,0,1.891618e-12,2.220446e-16,-1.110223e-16,9.516467e-18,0,0,0,0,2.223163e-16,-1.11294e-16,1.668051e-16,46.635292,2.224068e-16,1.96133e-16,0,0,0,0,0,0
2.869963,0.019662,-10.817711,1.891618e-12,0,0,1.891618e-12,0,-1.110223e-16,-1.23799e-17,0,0,0,0,1.363709e-18,-1.12386e-16,5.687486e-17,38.713917,7.583315e-17,7.538269e-17,0,0,0,0,0,0
2.917253,0.019662,-10.798264,1.891618e-12,0,0,1.891618e-12,2.220446e-16,-1.110223e-16,-3.799034e-19,0,0,0,0,2.22045e-16,-1.110227e-16,1.665339e-16,44.934647,2.220452e-16,1.958254e-16,0,0,0,0,0,0
2.964544,0.019662,-10.775959,1.891618e-12,0,0,1.891618e-12,2.220446e-16,-1.110223e-16,3.223926e-17,0,0,0,0,2.251365e-16,-1.141142e-16,1.696253e-16,50.478188,2.261671e-16,1.99332e-16,0,0,0,0,0,0
3.011834,0.019662,-10.751095,1.891618e-12,0,0,1.891618e-12,0,4.440892e-16,-2.119801e-17,0,0,0,0,4.450988e-16,-1.009563e-18,2.230542e-16,-42.273327,2.974055e-16,2.970696e-16,0,0,0,0,0,0
3.059125,0.019662,-10.723058,1.891618e-12,0,0,1.891618e-12,0,2.220446e-16,7.790238e-18,0,0,0,0,2.223176e-16,-2.72978e-19,1.112953e-16,-47.006882,1.483937e-16,1.483028e-16,0,0,0,0,0,0
3.106415,0.019662,-10.690602,1.891618e-12,0,0,1.891618e-12,0,-1.110223e-16,2.16356e-17,0,0,0,0,4.067262e-18,-1.150896e-16,5.957841e-17,55.646736,7.943789e-17,7.811743e-17,0,0,0,0,0,0
3.153705,0.019662,-10.652899,1.891618e-12,0,0,1.891618e-12,0,2.220446e-16,-9.247106e-18,0,0,0,0,2.22429e-16,-3.844326e-19,1.114067e-16,-42.619396,1.485423e-16,1.484143e-16,0,0,0,0,0,0
3.200996,0.019662,-10.610609,1.891618e-12,0,0,1.891618e-12,0,-1.110223e-16,-1.826173e-17,0,0,0,0,2.926669e-18,-1.13949e-16,5.843782e-17,35.895065,7.791709e-17,7.696009e-17,0,0,0,0,0,0
3.248286,0.019662,-10.565216,1.891618e-12,0,0,1.891618e-12,0,2.220446e-16,4.062266e-17,0,0,0,0,2.292431e-16,-7.198473e-18,1.182208e-16,-55.048695,1.576277e-16,1.552838e-16,0,0,0,0,0,0
3.295577,0.019662,-10.518258,1.891618e-12,0,0,1.891618e-12,0,2.220446e-16,-9.246554e-19,0,0,0,0,2.220484e-16,-3.850454e-21,1.110262e-16,-44.76141,1.480349e-16,1.480336e-16,0,0,0,0,0,0
3.342867,0.019662,-10.48055,1.891618e-12,0,0,1.891618e-12,-1.110223e-16,0,-9.933872e-18,0,0,0,0,8.818423e-19,-1.119041e-16,5.639299e-17,-39.927078,7.519066e-17,7.489844e-17,0,0,0,0,0,0
1.451249,-0.027628,-10.111067,1.891618e-12,0,0,1.891618e-12,0,-1.110223e-16,-4.319041e-17,0,0,0,0,1.482304e-17,-1.258454e-16,7.033419e-17,26.057665,9.377893e-17,8.924917e-17,0,0,0,0,0,0
1.49854,-0.027628,-10.217695,1.891618e-12,0,0,1.891618e-12,0,-1.110223e-16,-2.239374e-18,0,0,0,0,4.515089e-20,-1.110675e-16,5.55563e-17,43.844944,7.407507e-17,7.406002e-17,0,0,0,0,0,0
1.54583,-0.027628,-10.324598,1.891618e-12,0,0,1.891618e-12,2.220446e-16,0,-5.050546e-17,0,0,0,0,2.329926e-16,-1.0948e-17,1.219703e-16,32.769302,1.626271e-16,1.591033e-16,0,0,0,0,0,0
1.593121,-0.027628,-10.409089,1.891618e-12,0,0,1.891618e-12,-3.330669e-16,2.220446e-16,-4.202368e-17,0,0,0,0,2.252079e-16,-3.362302e-16,2.807191e-16,-40.695225,3.742921e-16,3.262522e-16,0,0,0,0,0,0
1.640411,-0.027628,-10.475107,1.891618e-12,0,0,1.891618e-12,-3.330669e-16,0,-2.874348e-17,0,0,0,0,2.462342e-18,-3.355293e-16,1.689958e-16,-40.103649,2.253277e-16,2.245115e-16,0,0,0,0,0,0
1.687701,-0.027628,-10.530291,1.891618e-12,0,0,1.891618e-12,4.440892e-16,0,1.660899e-17,0,0,0,0,4.447095e-16,-6.203116e-19,2.226649e-16,47.138885,2.968866e-16,2.9668e-16,0,0,0,0,0,0
1.734992,-0.027628,-10.579301,1.891618e-12,0,0,1.891618e-12,-2.220446e-16,0,-2.405898e-17,0,0,0,0,2.576933e-18,-2.246215e-16,1.135992e-16,-38.886417,1.514657e-16,1.50614e-16,0,0,0,0,0,0
1.782282,-0.027628,-10.623314,1.891618e-12,0,0,1.891618e-12,0,-4.440892e-16,-3.71161e-17,0,0,0,0,3.080719e-18,-4.471699e-16,2.251253e-16,40.255199,3.001671e-16,2.991455e-16,0,0,0,0,0,0
1.829573,-0.027628,-10.6612,1.891618e-12,0,0,1.891618e-12,0,2.220446e-16,1.462162e-17,0,0,0,0,2.230033e-16,-9.58693e-19,1.11981e-16,-48.751331,1.49308e-16,1.489895e-16,0,0,0,0,0,0
1.876863,-0.027628,-10.692646,1.891618e-12,0,0,1.891618e-12,-1.110223e-16,-1.110223e-16,-2.701146e-17,0,0,0,0,-8.401084e-17,-1.380338e-16,2.701146e-17,0,3.601529e-17,8.031828e-17,0,0,0,0,0,0
1.924154,-0.027628,-10.720397,1.891618e-12,0,0,1.891618e-12,-2.220446e-16,-4.440892e-16,3.421848e-17,0,0,0,0,-2.168909e-16,-4.492429e-16,1.16176e-16,53.56498,1.549013e-16,2.594217e-16,0,0,0,0,0,0
1.971444,-0.027628,-10.747441,1.891618e-12,0,0,1.891618e-12,2.220446e-16,0,-5.993036e-18,0,0,0,0,2.222062e-16,-1.616358e-19,1.111839e-16,43.455074,1.482452e-16,1.481914e-16,0,0,0,0,0,0
2.018735,-0.027628,-10.774721,1.891618e-12,0,0,1.891618e-12,-1.110223e-16,-1.110223e-16,2.2975e-17,0,0,0,0,-8.804731e-17,-1.339973e-16,2.2975e-17,90,3.063333e-17,7.86257e-17,0,0,0,0,0,0
2.066025,-0.027628,-10.799968,1.891618e-12,0,0,1.891618e-12,-2.220446e-16,2.220446e-16,-4.259585e-17,0,0,0,0,2.260934e-16,-2.260934e-16,2.260934e-16,-39.570305,3.014578e-16,2.610701e-16,0,0,0,0,0,0
2.113316,-0.027628,-10.820833,1.891618e-12,0,0,1.891618e-12,0,2.220446e-16,-1.747499e-17,0,0,0,0,2.234115e-16,-1.366874e-18,1.123892e-16,-40.527496,1.498522e-16,1.493987e-16,0,0,0,0,0,0
2.160606,-0.027628,-10.836273,1.891618e-12,0,0,1.891618e-12,-1.110223e-16,0,4.015612e-17,0,0,0,0,1.300163e-17,-1.240239e-16,6.851279e-17,-62.940769,9.135038e-17,8.733968e-17,0,0,0,0,0,0
2.207896,-0.027628,-10.848663,1.891618e-12,0,0,1.891618e-12,0,2.220446e-16,1.708916e-19,0,0,0,0,2.220447e-16,-1.315227e-22,1.110224e-16,-45.044098,1.480299e-16,1.480299e-16,0,0,0,0,0,0
2.255187,-0.027628,-10.858708,1.891618e-12,0,0,1.891618e-12,2.220446e-16,2.220446e-16,4.194608e-17,0,0,0,0,2.639907e-16,1.800985e-16,4.194608e-17,90,5.592811e-17,1.557523e-16,0,0,0,0,0,0
2.302477,-0.027628,-10.866929,1.891618e-12,0,0,1.891618e-12,2.220446e-16,0,-2.617675e-17,0,0,0,0,2.250888e-16,-3.044231e-18,1.140665e-16,38.366573,1.520887e-16,1.510842e-16,0,0,0,0,0,0
2.349768,-0.027628,-10.873656,1.891618e-12,0,0,1.891618e-12,-1.110223e-16,0,-2.667984e-17,0,0,0,0,6.078636e-18,-1.171009e-16,6.158978e-17,-32.165035,8.211972e-17,8.017036e-17,0,0,0,0,0,0
2.397058,-0.027628,-10.879483,1.891618e-12,0,0,1.891618e-12,2.220446e-16,0,-6.732766e-18,0,0,0,0,2.222486e-16,-2.039614e-19,1.112263e-16,43.26482,1.483017e-16,1.482337e-16,0,0,0,0,0,0
2.444349,-0.027628,-10.883572,1.891618e-12,0,0,1.891618e-12,2.220446e-16,2.220446e-16,2.600727e-17,0,0,0,0,2.480519e-16,1.960373e-16,2.600727e-17,90,3.467636e-17,1.510452e-16,0,0,0,0,0,0
2.491639,-0.027628,-10.885926,1.891618e-12,0,0,1.891618e-12,4.440892e-16,2.220446e-16,1.580638e-19,0,0,0,0,4.440893e-16,2.220445e-16,1.110224e-16,45.040787,1.480299e-16,2.563951e-16,0,0,0,0,0,0
2.53893,-0.027628,-10.885023,1.891618e-12,0,0,1.891618e-12,2.220446e-16,0,2.668856e-17,0,0,0,0,2.252074e-16,-3.16277e-18,1.141851e-16,51.758408,1.522468e-16,1.512035e-16,0,0,0,0,0,0
2.58622,-0.027628,-10.880422,1.891618e-12,0,0,1.891618e-12,-1.110223e-16,2.220446e-16,-1.254016e-17,0,0,0,0,2.225161e-16,-1.114938e-16,1.670049e-16,-42.846844,2.226732e-16,1.963596e-16,0,0,0,0,0,0
2.633511,-0.027628,-10.873961,1.891618e-12,0,0,1.891618e-12,-1.110223e-16,0,-3.176622e-17,0,0,0,0,8.446497e-18,-1.194688e-16,6.395765e-17,-30.109838,8.527686e-17,8.260543e-17,0,0,0,0,0,0
2.680801,-0.027628,-10.866271,1.891618e-12,0,0,1.891618e-12,0,2.220446e-16,-3.308607e-17,0,0,0,0,2.268698e-16,-4.825182e-18,1.158475e-16,-36.702633,1.544633e-16,1.528803e-16,0,0,0,0,0,0
2.728091,-0.027628,-10.857139,1.891618e-12,0,0,1.891618e-12,0,2.220446e-16,5.026523e-18,0,0,0,0,2.221583e-16,-1.137294e-19,1.11136e-16,-46.296146,1.481814e-16,1.481435e-16,0,0,0,0,0,0
2.775382,-0.027628,-10.846662,1.891618e-12,0,0,1.891618e-12,0,-2.220446e-16,-1.806226e-17,0,0,0,0,1.459682e-18,-2.235043e-16,1.12482e-16,40.379745,1.49976e-16,1.494918e-16,0,0,0,0,0,0
2.822672,-0.027628,-10.83414,1.891618e-12,0,0,1.891618e-12,2.220446e-16,0,3.251344e-17,0,0,0,0,2.267075e-16,-4.66294e-18,1.156852e-16,53.161469,1.54247e-16,1.527164e-16,0,0,0,0,0,0
2.869963,-0.027628,-10.818431,1.891618e-12,0,0,1.891618e-12,-1.110223e-16,-2.220446e-16,-1.354111e-17,0,0,0,0,-1.093946e-16,-2.236723e-16,5.713886e-17,38.145638,7.618515e-17,1.291475e-16,0,0,0,0,0,0
2.917253,-0.027628,-10.79956,1.891618e-12,0,0,1.891618e-12,-1.110223e-16,2.220446e-16,4.440886e-17,0,0,0,0,2.278641e-16,-1.168418e-16,1.723529e-16,-52.465698,2.298039e-16,2.024276e-16,0,0,0,0,0,0
2.964544,-0.027628,-10.777306,1.891618e-12,0,0,1.891618e-12,2.220446e-16,0,2.58983e-17,0,0,0,0,2.250253e-16,-2.980652e-18,1.14003e-16,51.565323,1.520039e-16,1.510202e-16,0,0,0,0,0,0
3.011834,-0.027628,-10.752246,1.891618e-12,0,0,1.891618e-12,2.220446e-16,0,-1.431021e-17,0,0,0,0,2.229631e-16,-9.18458e-19,1.119408e-16,41.327679,1.492544e-16,1.489491e-16,0,0,0,0,0,0
3.059125,-0.027628,-10.72409,1.891618e-12,0,0,1.891618e-12,2.220446e-16,2.220446e-16,-2.419081e-18,0,0,0,0,2.244637e-16,2.196255e-16,2.419081e-18,0,3.225441e-18,1.480561e-16,0,0,0,0,0,0
3.106415,-0.027628,-10.691336,1.891618e-12,0,0,1.891618e-12,2.220446e-16,0,1.191266e-17,0,0,0,0,2.226819e-16,-6.372837e-19,1.116596e-16,48.062195,1.488794e-16,1.486675e-16,0,0,0,0,0,0
3.153705,-0.027628,-10.652764,1.891618e-12,0,0,1.891618e-12,0,2.220446e-16,2.10513e-17,0,0,0,0,2.240228e-16,-1.97818e-18,1.130005e-16,-50.36829,1.506673e-16,1.500123e-16,0,0,0,0,0,0
3.200996,-0.027628,-10.609306,1.891618e-12,0,0,1.891618e-12,-5.551115e-16,0,-8.204527e-18,0,0,0,0,1.212361e-19,-5.552327e-16,2.77677e-16,-44.153416,3.70236e-16,3.701956e-16,0,0,0,0,0,0
3.248286,-0.027628,-10.563036,1.891618e-12,0,0,1.891618e-12,2.220446e-16,2.220446e-16,1.734705e-17,0,0,0,0,2.393917e-16,2.046976e-16,1.734705e-17,90,2.31294e-17,1.493788e-16,0,0,0,0,0,0
3.295577,-0.027628,-10.516777,1.891618e-12,0,0,1.891618e-12,0,2.220446e-16,1.834188e-17,0,0,0,0,2.235495e-16,-1.504922e-18,1.125272e-16,-49.690521,1.500363e-16,1.495372e-16,0,0,0,0,0,0
3.342867,-0.027628,-10.469729,1.891618e-12,0,0,1.891618e-12,-2.220446e-16,-1.110223e-16,-5.361832e-17,0,0,0,0,-8.935566e-17,-2.437113e-16,7.717779e-17,-22.996843,1.029037e-16,1.423651e-16,0,0,0,0,0,0
3.390158,-0.027628,-10.436639,1.891618e-12,0,0,1.891618e-12,2.220446e-16,-2.220446e-16,-6.021968e-17,0,0,0,0,2.300657e-16,-2.300657e-16,2.300657e-16,37.413036,3.067542e-16,2.65657e-16,0,0,0,0,0,0
1.451249,-0.074919,-10.111839,1.891618e-12,0,0,1.891618e-12,2.220446e-16,2.220446e-16,1.12811e-17,0,0,0,0,2.333257e-16,2.107635e-16,1.12811e-17,90,1.504146e-17,1.486018e-16,0,0,0,0,0,0
1.49854,-0.074919,-10.219032,1.891618e-12,0,0,1.891618e-12,0,0,1.110527e-18,0,0,0,0,1.110527e-18,-1.110527e-18,1.110527e-18,90,1.480703e-18,1.282326e-18,0,0,0,0,0,0
1.54583,-0.074919,-10.325821,1.891618e-12,0,0,1.891618e-12,2.220446e-16,0,2.634972e-17,0,0,0,0,2.251287e-16,-3.084048e-18,1.141063e-16,51.675694,1.521418e-16,1.511243e-16,0,0,0,0,0,0
1.593121,-0.074919,-10.41033,1.891618e-12,0,0,1.891618e-12,-1.110223e-16,4.440892e-16,1.238985e-17,0,0,0,0,4.443656e-16,-1.112987e-16,2.778322e-16,-46.277969,3.704429e-16,3.394803e-16,0,0,0,0,0,0
1.640411,-0.074919,-10.47636,1.891618e-12,0,0,1.891618e-12,0,-1.110223e-16,7.420065e-18,0,0,0,0,4.937171e-19,-1.11516e-16,5.600487e-17,48.80674,7.467316e-17,7.450913e-17,0,0,0,0,0,0
1.687701,-0.074919,-10.532344,1.891618e-12,0,0,1.891618e-12,-2.220446e-16,0,-3.624098e-17,0,0,0,0,5.765369e-18,-2.2781e-16,1.167877e-16,-35.960888,1.557169e-16,1.538311e-16,0,0,0,0,0,0
1.734992,-0.074919,-10.582436,1.891618e-12,0,0,1.891618e-12,0,2.220446e-16,3.324727e-17,0,0,0,0,2.269159e-16,-4.871325e-18,1.158936e-16,-53.335556,1.545248e-16,1.529269e-16,0,0,0,0,0,0
1.782282,-0.074919,-10.627052,1.891618e-12,0,0,1.891618e-12,0,2.220446e-16,1.175675e-18,0,0,0,0,2.220508e-16,-6.224755e-21,1.110285e-16,-45.303356,1.48038e-16,1.48036e-16,0,0,0,0,0,0
1.829573,-0.074919,-10.665337,1.891618e-12,0,0,1.891618e-12,0,2.220446e-16,-2.697744e-17,0,0,0,0,2.252752e-16,-3.230635e-18,1.142529e-16,-38.171165,1.523372e-16,1.512719e-16,0,0,0,0,0,0
1.876863,-0.074919,-10.696604,1.891618e-12,0,0,1.891618e-12,4.440892e-16,2.220446e-16,3.884191e-17,0,0,0,0,4.506877e-16,2.154461e-16,1.176208e-16,54.641369,1.568277e-16,2.602883e-16,0,0,0,0,0,0
1.924154,-0.074919,-10.724117,1.891618e-12,0,0,1.891618e-12,0,2.220446e-16,2.868693e-17,0,0,0,0,2.256909e-16,-3.646315e-18,1.146686e-16,-52.243858,1.528915e-16,1.516907e-16,0,0,0,0,0,0
1.971444,-0.074919,-10.751171,1.891618e-12,0,0,1.891618e-12,-1.110223e-16,2.220446e-16,9.698531e-18,0,0,0,0,2.223268e-16,-1.113045e-16,1.668156e-16,-46.666504,2.224208e-16,1.961449e-16,0,0,0,0,0,0
2.018735,-0.074919,-10.778638,1.891618e-12,0,0,1.891618e-12,2.220446e-16,0,-5.700634e-18,0,0,0,0,2.221909e-16,-1.462582e-19,1.111686e-16,43.530315,1.482247e-16,1.48176e-16,0,0,0,0,0,0
2.066025,-0.074919,-10.804097,1.891618e-12,0,0,1.891618e-12,2.220446e-16,-2.220446e-16,3.954031e-17,0,0,0,0,2.255377e-16,-2.255377e-16,2.255377e-16,50.048519,3.007169e-16,2.604285e-16,0,0,0,0,0,0
2.113316,-0.074919,-10.824946,1.891618e-12,0,0,1.891618e-12,-1.110223e-16,-1.110223e-16,-4.458806e-17,0,0,0,0,-6.643424e-17,-1.556104e-16,4.458806e-17,0,5.945075e-17,9.016093e-17,0,0,0,0,0,0
2.160606,-0.074919,-10.840117,1.891618e-12,0,0,1.891618e-12,-2.220446e-16,2.220446e-16,-5.309292e-17,0,0,0,0,2.283039e-16,-2.283039e-16,2.283039e-16,-38.276264,3.044052e-16,2.636226e-16,0,0,0,0,0,0
2.207896,-0.074919,-10.852213,1.891618e-12,0,0,1.891618e-12,4.440892e-16,0,-4.00341e-19,0,0,0,0,4.440896e-16,-3.609022e-22,2.22045e-16,44.948349,2.9606e-16,2.960598e-16,0,0,0,0,0,0
2.255187,-0.074919,-10.862038,1.891618e-12,0,0,1.891618e-12,2.220446e-16,-1.110223e-16,-2.589156e-17,0,0,0,0,2.240453e-16,-1.13023e-16,1.685342e-16,40.581383,2.247122e-16,1.98094e-16,0,0,0,0,0,0
2.302477,-0.074919,-10.869911,1.891618e-12,0,0,1.891618e-12,2.220446e-16,2.220446e-16,-6.203397e-18,0,0,0,0,2.28248e-16,2.158412e-16,6.203397e-18,0,8.271196e-18,1.482029e-16,0,0,0,0,0,0
2.349768,-0.074919,-10.875871,1.891618e-12,0,0,1.891618e-12,-2.220446e-16,0,-5.006827e-17,0,0,0,0,1.076761e-17,-2.328122e-16,1.217899e-16,-32.862911,1.623866e-16,1.58919e-16,0,0,0,0,0,0
2.397058,-0.074919,-10.880568,1.891618e-12,0,0,1.891618e-12,0,0,4.764753e-17,0,0,0,0,4.764753e-17,-4.764753e-17,4.764753e-17,90,6.353003e-17,5.501862e-17,0,0,0,0,0,0
2.444349,-0.074919,-10.88413,1.891618e-12,0,0,1.891618e-12,2.220446e-16,-2.220446e-16,3.13229e-17,0,0,0,0,2.24243e-16,-2.24243e-16,2.24243e-16,49.014748,2.989907e-16,2.589335e-16,0,0,0,0,0,0
2.491639,-0.074919,-10.886533,1.891618e-12,0,0,1.891618e-12,-1.110223e-16,0,-2.688917e-17,0,0,0,0,6.169602e-18,-1.171919e-16,6.168075e-17,-32.077408,8.2241e-17,8.026355e-17,0,0,0,0,0,0
2.53893,-0.074919,-10.885618,1.891618e-12,0,0,1.891618e-12,-1.110223e-16,-2.220446e-16,-6.980018e-18,0,0,0,0,-1.105852e-16,-2.224817e-16,5.594827e-17,41.416595,7.459769e-17,1.284506e-16,0,0,0,0,0,0
2.58622,-0.074919,-10.880566,1.891618e-12,0,0,1.891618e-12,0,-1.110223e-16,-1.790112e-17,0,0,0,0,2.814983e-18,-1.138373e-16,5.832613e-17,36.06332,7.776818e-17,7.684704e-17,0,0,0,0,0,0
2.633511,-0.074919,-10.873143,1.891618e-12,0,0,1.891618e-12,2.220446e-16,0,6.075236e-17,0,0,0,0,2.375798e-16,-1.55352e-17,1.265575e-16,59.343929,1.687433e-16,1.638107e-16,0,0,0,0,0,0
2.680801,-0.074919,-10.864712,1.891618e-12,0,0,1.891618e-12,2.220446e-16,0,-2.952181e-17,0,0,0,0,2.259026e-16,-3.858022e-18,1.148803e-16,37.554565,1.531738e-16,1.519041e-16,0,0,0,0,0,0
2.728091,-0.074919,-10.855733,1.891618e-12,0,0,1.891618e-12,4.440892e-16,-1.110223e-16,6.805266e-18,0,0,0,0,4.441726e-16,-1.111057e-16,2.776392e-16,45.702263,3.701856e-16,3.392698e-16,0,0,0,0,0,0
2.775382,-0.074919,-10.846147,1.891618e-12,0,0,1.891618e-12,-1.110223e-16,2.220446e-16,-3.177221e-17,0,0,0,0,2.250484e-16,-1.140261e-16,1.695372e-16,-39.599293,2.260496e-16,1.99232e-16,0,0,0,0,0,0
2.822672,-0.074919,-10.834675,1.891618e-12,0,0,1.891618e-12,2.220446e-16,2.220446e-16,-1.945375e-17,0,0,0,0,2.414984e-16,2.025909e-16,1.945375e-17,0,2.593834e-17,1.497244e-16,0,0,0,0,0,0
2.869963,-0.074919,-10.819821,1.891618e-12,0,0,1.891618e-12,-1.110223e-16,0,-3.80017e-17,0,0,0,0,1.176156e-17,-1.227839e-16,6.727271e-17,-27.802662,8.969694e-17,8.60448e-17,0,0,0,0,0,0
2.917253,-0.074919,-10.801241,1.891618e-12,0,0,1.891618e-12,2.220446e-16,-1.110223e-16,-4.2032e-18,0,0,0,0,2.220977e-16,-1.110753e-16,1.665865e-16,44.2771,2.221153e-16,1.958851e-16,0,0,0,0,0,0
2.964544,-0.074919,-10.77875,1.891618e-12,0,0,1.891618e-12,2.220446e-16,0,2.292186e-19,0,0,0,0,2.220448e-16,-2.366242e-22,1.110225e-16,45.059147,1.480301e-16,1.4803e-16,0,0,0,0,0,0
3.011834,-0.074919,-10.753128,1.891618e-12,0,0,1.891618e-12,0,2.220446e-16,2.875527e-17,0,0,0,0,2.25708e-16,-3.663429e-18,1.146857e-16,-52.260387,1.529143e-16,1.517079e-16,0,0,0,0,0,0
3.059125,-0.074919,-10.724448,1.891618e-12,0,0,1.891618e-12,0,-1.110223e-16,1.610169e-17,0,0,0,0,2.288091e-18,-1.133104e-16,5.779924e-17,53.087727,7.706566e-17,7.631439e-17,0,0,0,0,0,0
3.106415,-0.074919,-10.691361,1.891618e-12,0,0,1.891618e-12,0,0,2.024977e-17,0,0,0,0,2.024977e-17,-2.024977e-17,2.024977e-17,90,2.699969e-17,2.338242e-17,0,0,0,0,0,0
3.153705,-0.074919,-10.652181,1.891618e-12,0,0,1.891618e-12,0,-1.110223e-16,-1.396208e-17,0,0,0,0,1.728937e-18,-1.127512e-16,5.724009e-17,37.940948,7.632012e-17,7.575038e-17,0,0,0,0,0,0
3.200996,-0.074919,-10.607831,1.891618e-12,0,0,1.891618e-12,2.220446e-16,-2.220446e-16,-4.000119e-17,0,0,0,0,2.256189e-16,-2.256189e-16,2.256189e-16,39.893867,3.008252e-16,2.605223e-16,0,0,0,0,0,0
3.248286,-0.074919,-10.561299,1.891618e-12,0,0,1.891618e-12,-2.220446e-16,2.220446e-16,-5.29431e-18,0,0,0,0,2.221077e-16,-2.221077e-16,2.221077e-16,-44.317066,2.961436e-16,2.564679e-16,0,0,0,0,0,0
3.295577,-0.074919,-10.51394,1.891618e-12,0,0,1.891618e-12,-2.220446e-16,-1.110223e-16,-6.257182e-19,0,0,0,0,-1.110188e-16,-2.220481e-16,5.551468e-17,-44.677097,7.401957e-17,1.281995e-16,0,0,0,0,0,0
3.342867,-0.074919,-10.466478,1.891618e-12,0,0,1.891618e-12,0,4.440892e-16,-8.008477e-18,0,0,0,0,4.442336e-16,-1.443739e-19,2.22189e-16,-43.967205,2.96252e-16,2.962038e-16,0,0,0,0,0,0
3.390158,-0.074919,-10.434302,1.891618e-12,0,0,1.891618e-12,2.220446e-16,2.220446e-16,-1.137352e-17,0,0,0,0,2.334181e-16,2.106711e-16,1.137352e-17,0,1.51647e-17,1.486112e-16,0,0,0,0,0,0
1.451249,-0.122209,-10.111772,1.891618e-12,0,0,1.891618e-12,-1.110223e-16,2.220446e-16,1.905076e-17,0,0,0,0,2.231307e-16,-1.121084e-16,1.676196e-16,-48.26302,2.234928e-16,1.970566e-16,0,0,0,0,0,0
1.49854,-0.122209,-10.220494,1.891618e-12,0,0,1.891618e-12,0,2.220446e-16,7.383104e-17,0,0,0,0,2.443526e-16,-2.230802e-17,1.333303e-16,-61.812172,1.777738e-16,1.70824e-16,0,0,0,0,0,0
1.54583,-0.122209,-10.327335,1.891618e-12,0,0,1.891618e-12,0,0,-4.051525e-18,0,0,0,0,4.051525e-18,-4.051525e-18,4.051525e-18,0,5.402033e-18,4.678298e-18,0,0,0,0,0,0
1.593121,-0.122209,-10.411562,1.891618e-12,0,0,1.891618e-12,-3.330669e-16,2.220446e-16,-3.934965e-17,0,0,0,0,2.248201e-16,-3.358424e-16,2.803312e-16,-40.965416,3.73775e-16,3.258072e-16,0,0,0,0,0,0
1.640411,-0.122209,-10.477258,1.891618e-12,0,0,1.891618e-12,0,0,-2.699235e-17,0,0,0,0,2.699235e-17,-2.699235e-17,2.699235e-17,0,3.598979e-17,3.116808e-17,0,0,0,0,0,0
1.687701,-0.122209,-10.533756,1.891618e-12,0,0,1.891618e-12,-2.220446e-16,0,-1.107071e-17,0,0,0,0,5.50599e-19,-2.225952e-16,1.115729e-16,-42.152756,1.487639e-16,1.485807e-16,0,0,0,0,0,0
1.734992,-0.122209,-10.584654,1.891618e-12,0,0,1.891618e-12,-2.220446e-16,2.220446e-16,-2.639629e-19,0,0,0,0,2.220448e-16,-2.220448e-16,2.220448e-16,-44.965942,2.960597e-16,2.563952e-16,0,0,0,0,0,0
1.782282,-0.122209,-10.630019,1.891618e-12,0,0,1.891618e-12,-2.220446e-16,2.220446e-16,1.325558e-17,0,0,0,0,2.224399e-16,-2.224399e-16,2.224399e-16,-46.708191,2.965865e-16,2.568515e-16,0,0,0,0,0,0
1.829573,-0.122209,-10.668817,1.891618e-12,0,0,1.891618e-12,2.220446e-16,0,-3.115449e-17,0,0,0,0,2.26333e-16,-4.288381e-18,1.153107e-16,37.162552,1.537476e-16,1.523382e-16,0,0,0,0,0,0
1.876863,-0.122209,-10.700333,1.891618e-12,0,0,1.891618e-12,2.220446e-16,0,2.552358e-18,0,0,0,0,2.220739e-16,-2.933497e-20,1.110516e-16,45.658489,1.480689e-16,1.480591e-16,0,0,0,0,0,0
1.924154,-0.122209,-10.728015,1.891618e-12,0,0,1.891618e-12,-1.110223e-16,0,4.265901e-18,0,0,0,0,1.636709e-19,-1.11186e-16,5.567482e-17,-47.197205,7.423309e-17,7.41786e-17,0,0,0,0,0,0
1.971444,-0.122209,-10.755106,1.891618e-12,0,0,1.891618e-12,0,-2.220446e-16,-3.306634e-17,0,0,0,0,4.819549e-18,-2.268641e-16,1.158419e-16,36.70731,1.544558e-16,1.528746e-16,0,0,0,0,0,0
2.018735,-0.122209,-10.782687,1.891618e-12,0,0,1.891618e-12,0,2.220446e-16,2.082893e-17,0,0,0,0,2.239816e-16,-1.936963e-18,1.129593e-16,-50.312878,1.506124e-16,1.499709e-16,0,0,0,0,0,0
2.066025,-0.122209,-10.808345,1.891618e-12,0,0,1.891618e-12,-1.110223e-16,-1.110223e-16,5.148579e-18,0,0,0,0,-1.058737e-16,-1.161709e-16,5.148579e-18,90,6.864772e-18,7.425324e-17,0,0,0,0,0,0
2.113316,-0.122209,-10.829113,1.891618e-12,0,0,1.891618e-12,2.220446e-16,2.220446e-16,1.044733e-17,0,0,0,0,2.324919e-16,2.115973e-16,1.044733e-17,90,1.392977e-17,1.485205e-16,0,0,0,0,0,0
2.160606,-0.122209,-10.8438,1.891618e-12,0,0,1.891618e-12,2.220446e-16,2.220446e-16,1.055126e-17,0,0,0,0,2.325959e-16,2.114933e-16,1.055126e-17,90,1.406835e-17,1.485303e-16,0,0,0,0,0,0
2.207896,-0.122209,-10.855031,1.891618e-12,0,0,1.891618e-12,-1.110223e-16,-1.110223e-16,-4.330705e-17,0,0,0,0,-6.771525e-17,-1.543294e-16,4.330705e-17,0,5.774273e-17,8.932451e-17,0,0,0,0,0,0
2.255187,-0.122209,-10.864057,1.891618e-12,0,0,1.891618e-12,-2.220446e-16,2.220446e-16,8.635312e-18,0,0,0,0,2.222124e-16,-2.222124e-16,2.222124e-16,-46.113556,2.962833e-16,2.565888e-16,0,0,0,0,0,0
2.302477,-0.122209,-10.87125,1.891618e-12,0,0,1.891618e-12,-1.110223e-16,-1.110223e-16,-2.33658e-17,0,0,0,0,-8.76565e-17,-1.343881e-16,2.33658e-17,0,3.11544e-17,7.877911e-17,0,0,0,0,0,0
2.349768,-0.122209,-10.87668,1.891618e-12,0,0,1.891618e-12,2.220446e-16,2.220446e-16,3.34088e-17,0,0,0,0,2.554534e-16,1.886358e-16,3.34088e-17,90,4.454507e-17,1.529739e-16,0,0,0,0,0,0
2.397058,-0.122209,-10.880665,1.891618e-12,0,0,1.891618e-12,-1.110223e-16,-2.220446e-16,2.457304e-17,0,0,0,0,-1.058266e-16,-2.272403e-16,6.070686e-17,56.938732,8.094248e-17,1.313001e-16,0,0,0,0,0,0
2.444349,-0.122209,-10.883792,1.891618e-12,0,0,1.891618e-12,0,2.220446e-16,-1.981255e-17,0,0,0,0,2.237986e-16,-1.753974e-18,1.127763e-16,-39.94088,1.503684e-16,1.497871e-16,0,0,0,0,0,0
2.491639,-0.122209,-10.886173,1.891618e-12,0,0,1.891618e-12,-1.110223e-16,2.220446e-16,8.452318e-18,0,0,0,0,2.22259e-16,-1.112367e-16,1.667478e-16,-46.452763,2.223304e-16,1.96068e-16,0,0,0,0,0,0
2.53893,-0.122209,-10.885212,1.891618e-12,0,0,1.891618e-12,-2.220446e-16,2.220446e-16,-3.618509e-17,0,0,0,0,2.249737e-16,-2.249737e-16,2.249737e-16,-40.372131,2.999649e-16,2.597772e-16,0,0,0,0,0,0
2.58622,-0.122209,-10.880083,1.891618e-12,0,0,1.891618e-12,-1.110223e-16,2.220446e-16,1.904756e-18,0,0,0,0,2.220555e-16,-1.110332e-16,1.665443e-16,-45.327652,2.220591e-16,1.958373e-16,0,0,0,0,0,0
2.633511,-0.122209,-10.872479,1.891618e-12,0,0,1.891618e-12,0,-2.220446e-16,-1.099607e-17,0,0,0,0,5.432174e-19,-2.225878e-16,1.115655e-16,42.171829,1.48754e-16,1.485733e-16,0,0,0,0,0,0
2.680801,-0.122209,-10.864071,1.891618e-12,0,0,1.891618e-12,-4.440892e-16,0,-3.778901e-17,0,0,0,0,3.192639e-18,-4.472818e-16,2.252372e-16,-40.170784,3.003163e-16,2.992578e-16,0,0,0,0,0,0
2.728091,-0.122209,-10.855747,1.891618e-12,0,0,1.891618e-12,2.220446e-16,2.220446e-16,2.21811e-17,0,0,0,0,2.442257e-16,1.998635e-16,2.21811e-17,90,2.95748e-17,1.502292e-16,0,0,0,0,0,0
2.775382,-0.122209,-10.847059,1.891618e-12,0,0,1.891618e-12,2.220446e-16,-1.110223e-16,-2.10667e-17,0,0,0,0,2.233718e-16,-1.123495e-16,1.678606e-16,41.395153,2.238142e-16,1.9733e-16,0,0,0,0,0,0
2.822672,-0.122209,-10.836221,1.891618e-12,0,0,1.891618e-12,0,2.220446e-16,1.981974e-17,0,0,0,0,2.237998e-16,-1.755238e-18,1.127775e-16,-50.060917,1.503701e-16,1.497884e-16,0,0,0,0,0,0
2.869963,-0.122209,-10.821778,1.891618e-12,0,0,1.891618e-12,2.220446e-16,2.220446e-16,-8.786832e-18,0,0,0,0,2.308314e-16,2.132578e-16,8.786832e-18,0,1.171578e-17,1.483771e-16,0,0,0,0,0,0
2.917253,-0.122209,-10.803179,1.891618e-12,0,0,1.891618e-12,-2.220446e-16,2.220446e-16,2.44027e-17,0,0,0,0,2.233815e-16,-2.233815e-16,2.233815e-16,-48.135818,2.97842e-16,2.579387e-16,0,0,0,0,0,0
2.964544,-0.122209,-10.780299,1.891618e-12,0,0,1.891618e-12,0,0,-7.954115e-18,0,0,0,0,7.954115e-18,-7.954115e-18,7.954115e-18,0,1.060549e-17,9.184621e-18,0,0,0,0,0,0
3.011834,-0.122209,-10.753933,1.891618e-12,0,0,1.891618e-12,2.220446e-16,-1.110223e-16,1.45208e-17,0,0,0,0,2.226765e-16,-1.116542e-16,1.671653e-16,47.491638,2.228871e-16,1.965414e-16,0,0,0,0,0,0
3.059125,-0.122209,-10.724492,1.891618e-12,0,0,1.891618e-12,2.220446e-16,2.220446e-16,-1.929905e-17,0,0,0,0,2.413436e-16,2.027456e-16,1.929905e-17,0,2.573206e-17,1.496977e-16,0,0,0,0,0,0
3.106415,-0.122209,-10.691115,1.891618e-12,0,0,1.891618e-12,2.220446e-16,-1.110223e-16,3.495703e-18,0,0,0,0,2.220813e-16,-1.11059e-16,1.665701e-16,45.601261,2.220935e-16,1.958665e-16,0,0,0,0,0,0
3.153705,-0.122209,-10.652046,1.891618e-12,0,0,1.891618e-12,0,-1.110223e-16,5.059178e-18,0,0,0,0,2.30065e-19,-1.112524e-16,5.574121e-17,47.603718,7.432162e-17,7.424505e-17,0,0,0,0,0,0
3.200996,-0.122209,-10.607927,1.891618e-12,0,0,1.891618e-12,2.220446e-16,-1.110223e-16,1.235594e-17,0,0,0,0,2.225023e-16,-1.1148e-16,1.669912e-16,47.121639,2.226549e-16,1.96344e-16,0,0,0,0,0,0
3.248286,-0.122209,-10.561507,1.891618e-12,0,0,1.891618e-12,0,0,-4.836569e-17,0,0,0,0,4.836569e-17,-4.836569e-17,4.836569e-17,0,6.448758e-17,5.584789e-17,0,0,0,0,0,0
3.295577,-0.122209,-10.51313,1.891618e-12,0,0,1.891618e-12,-2.220446e-16,2.220446e-16,1.703132e-17,0,0,0,0,2.226968e-16,-2.226968e-16,2.226968e-16,-47.193062,2.969291e-16,2.571481e-16,0,0,0,0,0,0
3.342867,-0.122209,-10.463474,1.891618e-12,0,0,1.891618e-12,0,0,3.613262e-18,0,0,0,0,3.613262e-18,-3.613262e-18,3.613262e-18,90,4.817683e-18,4.172235e-18,0,0,0,0,0,0
3.390158,-0.122209,-10.429449,1.891618e-12,0,0,1.891618e-12,-3.330669e-16,2.220446e-16,2.867128e-17,0,0,0,0,2.235215e-16,-3.345438e-16,2.790327e-16,-47.948845,3.720436e-16,3.243175e-16,0,0,0,0,0,0
1.451249,-0.1695,-10.111245,1.891618e-12,0,0,1.891618e-12,4.440892e-16,2.220446e-16,-9.45201e-18,0,0,0,0,4.444909e-16,2.21643e-16,1.114239e-16,42.566898,1.485652e-16,2.566272e-16,0,0,0,0,0,0
1.49854,-0.1695,-10.222071,1.891618e-12,0,0,1.891618e-12,0,0,-1.410445e-17,0,0,0,0,1.410445e-17,-1.410445e-17,1.410445e-17,0,1.880593e-17,1.628641e-17,0,0,0,0,0,0
1.54583,-0.1695,-10.329246,1.891618e-12,0,0,1.891618e-12,-2.220446e-16,2.220446e-16,-2.709013e-17,0,0,0,0,2.236911e-16,-2.236911e-16,2.236911e-16,-41.522057,2.982547e-16,2.582962e-16,0,0,0,0,0,0
1.593121,-0.1695,-10.413412,1.891618e-12,0,0,1.891618e-12,0,-2.220446e-16,-2.702508e-18,0,0,0,0,3.288739e-20,-2.220775e-16,1.110552e-16,44.302792,1.480736e-16,1.480626e-16,0,0,0,0,0,0
1.640411,-0.1695,-10.478944,1.891618e-12,0,0,1.891618e-12,-3.330669e-16,2.220446e-16,-4.555366e-18,0,0,0,0,2.22082e-16,-3.331043e-16,2.775931e-16,-44.529861,3.701242e-16,3.226662e-16,0,0,0,0,0,0
1.687701,-0.1695,-10.53538,1.891618e-12,0,0,1.891618e-12,0,0,3.62403e-17,0,0,0,0,3.62403e-17,-3.62403e-17,3.62403e-17,90,4.83204e-17,4.184669e-17,0,0,0,0,0,0
1.734992,-0.1695,-10.586624,1.891618e-12,0,0,1.891618e-12,-2.220446e-16,-1.110223e-16,-3.560053e-17,0,0,0,0,-1.005874e-16,-2.324795e-16,6.594608e-17,-28.663523,8.792811e-17,1.346271e-16,0,0,0,0,0,0
1.782282,-0.1695,-10.632474,1.891618e-12,0,0,1.891618e-12,6.661338e-16,0,1.8226e-17,0,0,0,0,6.666321e-16,-4.983062e-19,3.335652e-16,46.566101,4.447536e-16,4.445876e-16,0,0,0,0,0,0
1.829573,-0.1695,-10.67178,1.891618e-12,0,0,1.891618e-12,-2.220446e-16,2.220446e-16,4.865283e-17,0,0,0,0,2.273124e-16,-2.273124e-16,2.273124e-16,-51.179462,3.030831e-16,2.624777e-16,0,0,0,0,0,0
1.876863,-0.1695,-10.703855,1.891618e-12,0,0,1.891618e-12,-1.110223e-16,2.220446e-16,2.979911e-17,0,0,0,0,2.246897e-16,-1.136674e-16,1.691785e-16,-50.072502,2.255714e-16,1.98825e-16,0,0,0,0,0,0
1.924154,-0.1695,-10.73183,1.891618e-12,0,0,1.891618e-12,2.220446e-16,0,-2.459352e-17,0,0,0,0,2.247359e-16,-2.691342e-18,1.137136e-16,38.754803,1.516182e-16,1.507291e-16,0,0,0,0,0,0
1.971444,-0.1695,-10.758859,1.891618e-12,0,0,1.891618e-12,0,-2.220446e-16,1.278544e-17,0,0,0,0,7.337667e-19,-2.227784e-16,1.117561e-16,48.284649,1.490081e-16,1.487641e-16,0,0,0,0,0,0
2.018735,-0.1695,-10.786437,1.891618e-12,0,0,1.891618e-12,2.220446e-16,2.220446e-16,-1.69447e-17,0,0,0,0,2.389893e-16,2.050999e-16,1.69447e-17,0,2.259293e-17,1.493172e-16,0,0,0,0,0,0
2.066025,-0.1695,-10.812088,1.891618e-12,0,0,1.891618e-12,0,2.220446e-16,-1.138016e-17,0,0,0,0,2.226263e-16,-5.817285e-19,1.11604e-16,-42.073715,1.488054e-16,1.486119e-16,0,0,0,0,0,0
2.113316,-0.1695,-10.832726,1.891618e-12,0,0,1.891618e-12,2.220446e-16,0,-1.786438e-17,0,0,0,0,2.234727e-16,-1.428077e-18,1.124504e-16,40.429501,1.499338e-16,1.494601e-16,0,0,0,0,0,0
2.160606,-0.1695,-10.846956,1.891618e-12,0,0,1.891618e-12,2.220446e-16,2.220446e-16,-5.79786e-18,0,0,0,0,2.278425e-16,2.162467e-16,5.79786e-18,0,7.73048e-18,1.48181e-16,0,0,0,0,0,0
2.207896,-0.1695,-10.857273,1.891618e-12,0,0,1.891618e-12,0,-1.110223e-16,5.40626e-18,0,0,0,0,2.626379e-19,-1.112849e-16,5.577379e-17,47.781261,7.436505e-17,7.427766e-17,0,0,0,0,0,0
2.255187,-0.1695,-10.865444,1.891618e-12,0,0,1.891618e-12,2.220446e-16,4.440892e-16,6.177972e-17,0,0,0,0,4.601208e-16,2.06013e-16,1.270539e-16,-59.547142,1.694052e-16,2.661342e-16,0,0,0,0,0,0
2.302477,-0.1695,-10.872083,1.891618e-12,0,0,1.891618e-12,-1.110223e-16,-1.110223e-16,3.709756e-17,0,0,0,0,-7.392474e-17,-1.481199e-16,3.709756e-17,90,4.946341e-17,8.551709e-17,0,0,0,0,0,0
2.349768,-0.1695,-10.877247,1.891618e-12,0,0,1.891618e-12,2.220446e-16,2.220446e-16,-2.535973e-17,0,0,0,0,2.474043e-16,1.966849e-16,2.535973e-17,0,3.381297e-17,1.508983e-16,0,0,0,0,0,0
2.397058,-0.1695,-10.881081,1.891618e-12,0,0,1.891618e-12,-1.110223e-16,2.220446e-16,2.485925e-18,0,0,0,0,2.220632e-16,-1.110409e-16,1.66552e-16,-45.427608,2.220694e-16,1.95846e-16,0,0,0,0,0,0
2.444349,-0.1695,-10.884005,1.891618e-12,0,0,1.891618e-12,-2.220446e-16,0,1.914863e-17,0,0,0,0,1.639234e-18,-2.236838e-16,1.126615e-16,-49.892921,1.502154e-16,1.49672e-16,0,0,0,0,0,0
2.491639,-0.1695,-10.88636,1.891618e-12,0,0,1.891618e-12,2.220446e-16,2.220446e-16,-2.473125e-17,0,0,0,0,2.467758e-16,1.973133e-16,2.473125e-17,0,3.297501e-17,1.507591e-16,0,0,0,0,0,0
2.53893,-0.1695,-10.88551,1.891618e-12,0,0,1.891618e-12,-2.220446e-16,2.220446e-16,2.959969e-17,0,0,0,0,2.240088e-16,-2.240088e-16,2.240088e-16,-48.796528,2.986784e-16,2.586631e-16,0,0,0,0,0,0
2.58622,-0.1695,-10.880624,1.891618e-12,0,0,1.891618e-12,0,-1.110223e-16,1.749777e-18,0,0,0,0,2.757065e-20,-1.110499e-16,5.553872e-17,45.902718,7.405163e-17,7.404244e-17,0,0,0,0,0,0
2.633511,-0.1695,-10.873398,1.891618e-12,0,0,1.891618e-12,0,2.220446e-16,4.551097e-17,0,0,0,0,2.310106e-16,-8.966032e-18,1.199883e-16,-56.145008,1.599844e-16,1.570811e-16,0,0,0,0,0,0
2.680801,-0.1695,-10.865628,1.891618e-12,0,0,1.891618e-12,2.220446e-16,2.220446e-16,2.104787e-18,0,0,0,0,2.241494e-16,2.199398e-16,2.104787e-18,90,2.806383e-18,1.480497e-16,0,0,0,0,0,0
2.728091,-0.1695,-10.857848,1.891618e-12,0,0,1.891618e-12,-2.220446e-16,0,3.336639e-18,0,0,0,0,5.012798e-20,-2.220947e-16,1.110724e-16,-45.860718,1.480966e-16,1.480799e-16,0,0,0,0,0,0
2.775382,-0.1695,-10.849404,1.891618e-12,0,0,1.891618e-12,-2.220446e-16,-2.220446e-16,2.038052e-17,0,0,0,0,-2.016641e-16,-2.424251e-16,2.038052e-17,90,2.717402e-17,1.498887e-16,0,0,0,0,0,0
2.822672,-0.1695,-10.838362,1.891618e-12,0,0,1.891618e-12,0,2.220446e-16,-1.676529e-17,0,0,0,0,2.233033e-16,-1.258713e-18,1.12281e-16,-40.706371,1.49708e-16,1.492902e-16,0,0,0,0,0,0
2.869963,-0.1695,-10.82344,1.891618e-12,0,0,1.891618e-12,-2.220446e-16,-1.110223e-16,1.837424e-17,0,0,0,0,-1.080604e-16,-2.250065e-16,5.847307e-17,-54.157295,7.79641e-17,1.299413e-16,0,0,0,0,0,0
2.917253,-0.1695,-10.804259,1.891618e-12,0,0,1.891618e-12,0,2.220446e-16,-2.437837e-17,0,0,0,0,2.246896e-16,-2.645003e-18,1.136673e-16,-38.807747,1.515564e-16,1.506825e-16,0,0,0,0,0,0
2.964544,-0.1695,-10.780787,1.891618e-12,0,0,1.891618e-12,-2.220446e-16,-1.110223e-16,1.280578e-17,0,0,0,0,-1.095644e-16,-2.235025e-16,5.696908e-17,-51.49511,7.595877e-17,1.290475e-16,0,0,0,0,0,0
3.011834,-0.1695,-10.753615,1.891618e-12,0,0,1.891618e-12,-1.110223e-16,-1.110223e-16,-1.656538e-17,0,0,0,0,-9.445692e-17,-1.275877e-16,1.656538e-17,0,2.208718e-17,7.64466e-17,0,0,0,0,0,0
3.059125,-0.1695,-10.723443,1.891618e-12,0,0,1.891618e-12,-2.220446e-16,2.220446e-16,-1.431568e-20,0,0,0,0,2.220446e-16,-2.220446e-16,2.220446e-16,-44.998154,2.960595e-16,2.56395e-16,0,0,0,0,0,0
3.106415,-0.1695,-10.689987,1.891618e-12,0,0,1.891618e-12,0,6.661338e-16,1.633249e-17,0,0,0,0,6.66534e-16,-4.002049e-19,3.334671e-16,-46.403671,4.446228e-16,4.444895e-16,0,0,0,0,0,0
3.153705,-0.1695,-10.651543,1.891618e-12,0,0,1.891618e-12,0,2.220446e-16,-4.303938e-17,0,0,0,0,2.300951e-16,-8.05053e-18,1.190728e-16,-34.405235,1.587638e-16,1.561495e-16,0,0,0,0,0,0
3.200996,-0.1695,-10.608372,1.891618e-12,0,0,1.891618e-12,2.220446e-16,0,-9.859004e-18,0,0,0,0,2.224815e-16,-4.368901e-19,1.114592e-16,42.462666,1.486123e-16,1.484668e-16,0,0,0,0,0,0
3.248286,-0.1695,-10.562191,1.891618e-12,0,0,1.891618e-12,6.661338e-16,-1.110223e-16,3.902404e-19,0,0,0,0,6.66134e-16,-1.110225e-16,3.885782e-16,45.02877,5.181043e-16,4.853481e-16,0,0,0,0,0,0
3.295577,-0.1695,-10.513157,1.891618e-12,0,0,1.891618e-12,0,0,2.011808e-17,0,0,0,0,2.011808e-17,-2.011808e-17,2.011808e-17,90,2.682411e-17,2.323036e-17,0,0,0,0,0,0
3.342867,-0.1695,-10.461331,1.891618e-12,0,0,1.891618e-12,2.220446e-16,0,2.199111e-17,0,0,0,0,2.242016e-16,-2.157027e-18,1.131793e-16,50.602013,1.509058e-16,1.501919e-16,0,0,0,0,0,0
3.390158,-0.1695,-10.425067,1.891618e-12,0,0,1.891618e-12,0,4.440892e-16,-1.143791e-17,0,0,0,0,4.443836e-16,-2.943982e-19,2.22339e-16,-43.5256,2.96452e-16,2.963539e-16,0,0,0,0,0,0
1.451249,-0.21679,-10.110106,1.891618e-12,0,0,1.891618e-12,2.220446e-16,0,-4.714415e-18,0,0,0,0,2.221447e-16,-1.000506e-19,1.111224e-16,43.784237,1.481631e-16,1.481298e-16,0,0,0,0,0,0
1.49854,-0.21679,-10.223022,1.891618e-12,0,0,1.891618e-12,2.220446e-16,4.440892e-16,3.080336e-17,0,0,0,0,4.482832e-16,2.178506e-16,1.152163e-16,-52.753391,1.536217e-16,2.588504e-16,0,0,0,0,0,0
1.54583,-0.21679,-10.330697,1.891618e-12,0,0,1.891618e-12,4.440892e-16,-1.110223e-16,5.555935e-18,0,0,0,0,4.441448e-16,-1.110779e-16,2.776114e-16,45.57338,3.701485e-16,3.392394e-16,0,0,0,0,0,0
1.593121,-0.21679,-10.415098,1.891618e-12,0,0,1.891618e-12,0,0,1.884679e-17,0,0,0,0,1.884679e-17,-1.884679e-17,1.884679e-17,90,2.512906e-17,2.17624e-17,0,0,0,0,0,0
1.640411,-0.21679,-10.480654,1.891618e-12,0,0,1.891618e-12,0,0,4.037081e-17,0,0,0,0,4.037081e-17,-4.037081e-17,4.037081e-17,90,5.382774e-17,4.661619e-17,0,0,0,0,0,0
1.687701,-0.21679,-10.536921,1.891618e-12,0,0,1.891618e-12,-2.220446e-16,-4.440892e-16,-5.224957e-19,0,0,0,0,-2.220434e-16,-4.440904e-16,1.110235e-16,44.865177,1.480314e-16,2.563957e-16,0,0,0,0,0,0
1.734992,-0.21679,-10.588152,1.891618e-12,0,0,1.891618e-12,-2.220446e-16,-1.110223e-16,-1.738764e-17,0,0,0,0,-1.083629e-16,-2.247041e-16,5.817059e-17,-36.303997,7.756079e-17,1.297602e-16,0,0,0,0,0,0
1.782282,-0.21679,-10.63387,1.891618e-12,0,0,1.891618e-12,0,-4.440892e-16,-6.331164e-18,0,0,0,0,9.0242e-20,-4.441795e-16,2.221348e-16,44.183384,2.961798e-16,2.961497e-16,0,0,0,0,0,0
1.829573,-0.21679,-10.673202,1.891618e-12,0,0,1.891618e-12,-2.220446e-16,-1.110223e-16,4.808322e-17,0,0,0,0,-9.309311e-17,-2.399738e-16,7.344034e-17,-65.449394,9.792046e-17,1.397042e-16,0,0,0,0,0,0
1.876863,-0.21679,-10.705613,1.891618e-12,0,0,1.891618e-12,2.220446e-16,2.220446e-16,-1.17261e-18,0,0,0,0,2.232172e-16,2.20872e-16,1.17261e-18,0,1.56348e-18,1.480359e-16,0,0,0,0,0,0
1.924154,-0.21679,-10.733885,1.891618e-12,0,0,1.891618e-12,-2.220446e-16,0,2.017843e-17,0,0,0,0,1.818828e-18,-2.238634e-16,1.128411e-16,-50.150562,1.504548e-16,1.498522e-16,0,0,0,0,0,0
1.971444,-0.21679,-10.760901,1.891618e-12,0,0,1.891618e-12,-1.110223e-16,2.220446e-16,-3.912891e-17,0,0,0,0,2.265798e-16,-1.155574e-16,1.710686e-16,-38.388775,2.280915e-16,2.009697e-16,0,0,0,0,0,0
2.018735,-0.21679,-10.78843,1.891618e-12,0,0,1.891618e-12,0,2.220446e-16,3.345777e-18,0,0,0,0,2.22095e-16,-5.040285e-20,1.110727e-16,-45.863075,1.480969e-16,1.480801e-16,0,0,0,0,0,0
2.066025,-0.21679,-10.814147,1.891618e-12,0,0,1.891618e-12,0,2.220446e-16,4.136959e-18,0,0,0,0,2.221217e-16,-7.704979e-20,1.110994e-16,-46.066998,1.481325e-16,1.481068e-16,0,0,0,0,0,0
2.113316,-0.21679,-10.835174,1.891618e-12,0,0,1.891618e-12,0,-5.551115e-16,3.337555e-17,0,0,0,0,1.999471e-18,-5.57111e-16,2.795552e-16,48.428394,3.727403e-16,3.720756e-16,0,0,0,0,0,0
2.160606,-0.21679,-10.849787,1.891618e-12,0,0,1.891618e-12,0,2.220446e-16,1.808545e-17,0,0,0,0,2.23508e-16,-1.463408e-18,1.124857e-16,-49.626087,1.499809e-16,1.494955e-16,0,0,0,0,0,0
2.207896,-0.21679,-10.860029,1.891618e-12,0,0,1.891618e-12,2.220446e-16,2.220446e-16,1.365918e-17,0,0,0,0,2.357038e-16,2.083854e-16,1.365918e-17,90,1.821223e-17,1.488676e-16,0,0,0,0,0,0
2.255187,-0.21679,-10.867953,1.891618e-12,0,0,1.891618e-12,-1.110223e-16,-1.110223e-16,-3.761603e-17,0,0,0,0,-7.340628e-17,-1.486383e-16,3.761603e-17,0,5.01547e-17,8.581854e-17,0,0,0,0,0,0
2.302477,-0.21679,-10.874492,1.891618e-12,0,0,1.891618e-12,2.220446e-16,-2.220446e-16,-1.530277e-17,0,0,0,0,2.225713e-16,-2.225713e-16,2.225713e-16,43.028774,2.967617e-16,2.570032e-16,0,0,0,0,0,0
2.349768,-0.21679,-10.879584,1.891618e-12,0,0,1.891618e-12,-1.110223e-16,0,3.634772e-17,0,0,0,0,1.084128e-17,-1.218636e-16,6.635243e-17,-61.608036,8.84699e-17,8.508668e-17,0,0,0,0,0,0
2.397058,-0.21679,-10.883441,1.891618e-12,0,0,1.891618e-12,0,0,-2.707719e-17,0,0,0,0,2.707719e-17,-2.707719e-17,2.707719e-17,0,3.610292e-17,3.126605e-17,0,0,0,0,0,0
2.444349,-0.21679,-10.88625,1.891618e-12,0,0,1.891618e-12,2.220446e-16,0,2.856726e-18,0,0,0,0,2.220813e-16,-3.674728e-20,1.110591e-16,45.73698,1.480787e-16,1.480665e-16,0,0,0,0,0,0
2.491639,-0.21679,-10.888468,1.891618e-12,0,0,1.891618e-12,0,0,1.331996e-17,0,0,0,0,1.331996e-17,-1.331996e-17,1.331996e-17,90,1.775995e-17,1.538057e-17,0,0,0,0,0,0
2.53893,-0.21679,-10.887765,1.891618e-12,0,0,1.891618e-12,0,-1.110223e-16,1.497292e-17,0,0,0,0,1.983859e-18,-1.130062e-16,5.749501e-17,52.547527,7.666002e-17,7.600736e-17,0,0,0,0,0,0
2.58622,-0.21679,-10.883012,1.891618e-12,0,0,1.891618e-12,2.220446e-16,0,1.498258e-17,0,0,0,0,2.23051e-16,-1.006396e-18,1.120287e-16,48.842846,1.493716e-16,1.490373e-16,0,0,0,0,0,0
2.633511,-0.21679,-10.876062,1.891618e-12,0,0,1.891618e-12,2.220446e-16,-2.220446e-16,3.920363e-17,0,0,0,0,2.254789e-16,-2.254789e-16,2.254789e-16,50.006401,3.006385e-16,2.603606e-16,0,0,0,0,0,0
2.680801,-0.21679,-10.868624,1.891618e-12,0,0,1.891618e-12,0,0,-3.104311e-18,0,0,0,0,3.104311e-18,-3.104311e-18,3.104311e-18,0,4.139082e-18,3.58455e-18,0,0,0,0,0,0
2.728091,-0.21679,-10.860938,1.891618e-12,0,0,1.891618e-12,2.220446e-16,2.220446e-16,1.963056e-18,0,0,0,0,2.240077e-16,2.200816e-16,1.963056e-18,90,2.617408e-18,1.480471e-16,0,0,0,0,0,0
2.775382,-0.21679,-10.85219,1.891618e-12,0,0,1.891618e-12,2.220446e-16,2.220446e-16,-2.968656e-17,0,0,0,0,2.517312e-16,1.92358e-16,2.968656e-17,0,3.958207e-17,1.519469e-16,0,0,0,0,0,0
2.822672,-0.21679,-10.840278,1.891618e-12,0,0,1.891618e-12,-3.330669e-16,2.220446e-16,-7.452843e-18,0,0,0,0,2.221447e-16,-3.33167e-16,2.776558e-16,-44.230942,3.702077e-16,3.227381e-16,0,0,0,0,0,0
2.869963,-0.21679,-10.824131,1.891618e-12,0,0,1.891618e-12,0,-2.220446e-16,-5.96342e-17,0,0,0,0,1.500225e-17,-2.370469e-16,1.260246e-16,30.879053,1.680327e-16,1.632619e-16,0,0,0,0,0,0
2.917253,-0.21679,-10.803887,1.891618e-12,0,0,1.891618e-12,2.220446e-16,2.220446e-16,2.200662e-17,0,0,0,0,2.440512e-16,2.00038e-16,2.200662e-17,90,2.934216e-17,1.50195e-16,0,0,0,0,0,0
2.964544,-0.21679,-10.779582,1.891618e-12,0,0,1.891618e-12,0,2.220446e-16,1.823562e-17,0,0,0,0,2.235323e-16,-1.48765e-18,1.1251e-16,-49.663826,1.500133e-16,1.495199e-16,0,0,0,0,0,0
3.011834,-0.21679,-10.751804,1.891618e-12,0,0,1.891618e-12,4.440892e-16,-1.110223e-16,-7.844151e-18,0,0,0,0,4.442e-16,-1.111331e-16,2.776666e-16,44.190582,3.702221e-16,3.392997e-16,0,0,0,0,0,0
3.059125,-0.21679,-10.721294,1.891618e-12,0,0,1.891618e-12,-2.220446e-16,-1.110223e-16,1.475185e-17,0,0,0,0,-1.090956e-16,-2.239713e-16,5.743783e-17,-52.441071,7.658378e-17,1.293242e-16,0,0,0,0,0,0
3.106415,-0.21679,-10.687974,1.891618e-12,0,0,1.891618e-12,2.220446e-16,2.220446e-16,2.495864e-17,0,0,0,0,2.470033e-16,1.97086e-16,2.495864e-17,90,3.327819e-17,1.508091e-16,0,0,0,0,0,0
3.153705,-0.21679,-10.650387,1.891618e-12,0,0,1.891618e-12,-2.220446e-16,2.220446e-16,-1.260857e-17,0,0,0,0,2.224023e-16,-2.224023e-16,2.224023e-16,-43.375004,2.965364e-16,2.568081e-16,0,0,0,0,0,0
3.200996,-0.21679,-10.608376,1.891618e-12,0,0,1.891618e-12,0,-1.110223e-16,2.233545e-17,0,0,0,0,4.324959e-18,-1.153473e-16,5.983611e-17,55.958931,7.978148e-17,7.837961e-17,0,0,0,0,0,0
3.248286,-0.21679,-10.562787,1.891618e-12,0,0,1.891618e-12,-2.220446e-16,0,7.6845e-18,0,0,0,0,2.656268e-19,-2.223102e-16,1.112879e-16,-46.979729,1.483839e-16,1.482954e-16,0,0,0,0,0,0
3.295577,-0.21679,-10.51327,1.891618e-12,0,0,1.891618e-12,0,0,3.024668e-17,0,0,0,0,3.024668e-17,-3.024668e-17,3.024668e-17,90,4.032891e-17,3.492586e-17,0,0,0,0,0,0
3.342867,-0.21679,-10.459154,1.891618e-12,0,0,1.891618e-12,-2.220446e-16,0,4.352675e-18,0,0,0,0,8.529145e-20,-2.221299e-16,1.111076e-16,-46.122578,1.481435e-16,1.48115e-16,0,0,0,0,0,0
3.390158,-0.21679,-10.420525,1.891618e-12,0,0,1.891618e-12,-3.330669e-16,-1.110223e-16,-1.082522e-17,0,0,0,0,-1.104958e-16,-3.335934e-16,1.115488e-16,-42.215492,1.487317e-16,1.962235e-16,0,0,0,0,0,0
1.451249,-0.26408,-10.108758,1.891618e-12,0,0,1.891618e-12,4.440892e-16,0,1.144994e-16,0,0,0,0,4.718724e-16,-2.778318e-17,2.498278e-16,58.639164,3.331037e-16,3.242397e-16,0,0,0,0,0,0
1.49854,-0.26408,-10.223439,1.891618e-12,0,0,1.891618e-12,-2.220446e-16,0,-3.242857e-17,0,0,0,0,4.639115e-18,-2.266837e-16,1.156614e-16,-36.858707,1.542152e-16,1.526923e-16,0,0,0,0,0,0
1.54583,-0.26408,-10.330996,1.891618e-12,0,0,1.891618e-12,-1.110223e-16,-1.110223e-16,-2.917573e-17,0,0,0,0,-8.184657e-17,-1.40198e-16,2.917573e-17,0,3.890097e-17,8.132137e-17,0,0,0,0,0,0
1.593121,-0.26408,-10.415173,1.891618e-12,0,0,1.891618e-12,0,-1.110223e-16,-5.219759e-17,0,0,0,0,2.068647e-17,-1.317088e-16,7.619761e-17,23.381048,1.015968e-16,9.545148e-17,0,0,0,0,0,0
1.640411,-0.26408,-10.48084,1.891618e-12,0,0,1.891618e-12,2.220446e-16,0,-1.889278e-17,0,0,0,0,2.236406e-16,-1.59603e-18,1.126183e-16,40.171215,1.501578e-16,1.496286e-16,0,0,0,0,0,0
1.687701,-0.26408,-10.537256,1.891618e-12,0,0,1.891618e-12,2.220446e-16,2.220446e-16,4.349539e-17,0,0,0,0,2.6554e-16,1.785492e-16,4.349539e-17,90,5.799386e-17,1.563178e-16,0,0,0,0,0,0
1.734992,-0.26408,-10.58819,1.891618e-12,0,0,1.891618e-12,0,0,1.157406e-17,0,0,0,0,1.157406e-17,-1.157406e-17,1.157406e-17,90,1.543208e-17,1.336458e-17,0,0,0,0,0,0
1.782282,-0.26408,-10.633267,1.891618e-12,0,0,1.891618e-12,-2.220446e-16,-4.440892e-16,-1.487169e-17,0,0,0,0,-2.21053e-16,-4.450808e-16,1.120139e-16,41.185257,1.493519e-16,2.569694e-16,0,0,0,0,0,0
1.829573,-0.26408,-10.67213,1.891618e-12,0,0,1.891618e-12,2.220446e-16,-1.110223e-16,-9.233737e-18,0,0,0,0,2.223004e-16,-1.112781e-16,1.667892e-16,43.413193,2.223857e-16,1.96115e-16,0,0,0,0,0,0
1.876863,-0.26408,-10.704497,1.891618e-12,0,0,1.891618e-12,0,-4.440892e-16,-2.875676e-17,0,0,0,0,1.854385e-18,-4.459436e-16,2.23899e-16,41.310379,2.98532e-16,2.979158e-16,0,0,0,0,0,0
1.924154,-0.26408,-10.732873,1.891618e-12,0,0,1.891618e-12,-1.110223e-16,-1.110223e-16,2.792778e-17,0,0,0,0,-8.309451e-17,-1.389501e-16,2.792778e-17,90,3.723705e-17,8.073505e-17,0,0,0,0,0,0
1.971444,-0.26408,-10.76015,1.891618e-12,0,0,1.891618e-12,0,-1.110223e-16,2.195277e-17,0,0,0,0,4.183171e-18,-1.152055e-16,5.969432e-17,55.788555,7.959243e-17,7.823532e-17,0,0,0,0,0,0
2.018735,-0.26408,-10.788026,1.891618e-12,0,0,1.891618e-12,0,0,3.77208e-17,0,0,0,0,3.77208e-17,-3.77208e-17,3.77208e-17,90,5.02944e-17,4.355623e-17,0,0,0,0,0,0
2.066025,-0.26408,-10.814569,1.891618e-12,0,0,1.891618e-12,-2.220446e-16,0,4.195596e-17,0,0,0,0,7.663225e-18,-2.297078e-16,1.186855e-16,-55.350933,1.582474e-16,1.557558e-16,0,0,0,0,0,0
2.113316,-0.26408,-10.836902,1.891618e-12,0,0,1.891618e-12,2.220446e-16,-1.110223e-16,-1.179099e-17,0,0,0,0,2.224615e-16,-1.114392e-16,1.669504e-16,42.975037,2.226005e-16,1.962977e-16,0,0,0,0,0,0
2.160606,-0.26408,-10.852832,1.891618e-12,0,0,1.891618e-12,0,2.220446e-16,-2.987257e-17,0,0,0,0,2.259933e-16,-3.948658e-18,1.14971e-16,-37.4701,1.532946e-16,1.519955e-16,0,0,0,0,0,0
2.207896,-0.26408,-10.864093,1.891618e-12,0,0,1.891618e-12,2.220446e-16,2.220446e-16,1.088962e-17,0,0,0,0,2.329342e-16,2.11155e-16,1.088962e-17,90,1.451949e-17,1.485628e-16,0,0,0,0,0,0
2.255187,-0.26408,-10.872722,1.891618e-12,0,0,1.891618e-12,-1.110223e-16,-4.440892e-16,2.0897e-17,0,0,0,0,-1.097163e-16,-4.453952e-16,1.678394e-16,48.576111,2.237859e-16,2.679531e-16,0,0,0,0,0,0
2.302477,-0.26408,-10.879679,1.891618e-12,0,0,1.891618e-12,2.220446e-16,0,-2.535504e-17,0,0,0,0,2.249031e-16,-2.858467e-18,1.138808e-16,38.567768,1.51841e-16,1.508972e-16,0,0,0,0,0,0
2.349768,-0.26408,-10.884856,1.891618e-12,0,0,1.891618e-12,0,0,-7.097384e-18,0,0,0,0,7.097384e-18,-7.097384e-18,7.097384e-18,0,9.463179e-18,8.195353e-18,0,0,0,0,0,0
2.397058,-0.26408,-10.88848,1.891618e-12,0,0,1.891618e-12,-2.220446e-16,-1.110223e-16,-2.122731e-17,0,0,0,0,-1.071021e-16,-2.259648e-16,5.943136e-17,-34.536644,7.924181e-17,1.305197e-16,0,0,0,0,0,0
2.444349,-0.26408,-10.890842,1.891618e-12,0,0,1.891618e-12,2.220446e-16,-2.220446e-16,-7.536242e-18,0,0,0,0,2.221725e-16,-2.221725e-16,2.221725e-16,44.028057,2.962299e-16,2.565427e-16,0,0,0,0,0,0
2.491639,-0.26408,-10.892555,1.891618e-12,0,0,1.891618e-12,0,-1.110223e-16,-7.831576e-18,0,0,0,0,5.49722e-19,-1.11572e-16,5.606088e-17,40.984821,7.474783e-17,7.456526e-17,0,0,0,0,0,0
2.53893,-0.26408,-10.891488,1.891618e-12,0,0,1.891618e-12,2.220446e-16,2.220446e-16,-9.777219e-18,0,0,0,0,2.318218e-16,2.122674e-16,9.777219e-18,0,1.303629e-17,1.484596e-16,0,0,0,0,0,0
2.58622,-0.26408,-10.886574,1.891618e-12,0,0,1.891618e-12,2.220446e-16,0,-4.492555e-18,0,0,0,0,2.221355e-16,-9.085921e-20,1.111132e-16,43.841385,1.481509e-16,1.481206e-16,0,0,0,0,0,0
2.633511,-0.26408,-10.87953,1.891618e-12,0,0,1.891618e-12,2.220446e-16,0,-3.494043e-17,0,0,0,0,2.27413e-16,-5.368354e-18,1.163907e-16,36.265205,1.551875e-16,1.534294e-16,0,0,0,0,0,0
2.680801,-0.26408,-10.871921,1.891618e-12,0,0,1.891618e-12,2.220446e-16,2.220446e-16,-3.980243e-17,0,0,0,0,2.61847e-16,1.822422e-16,3.980243e-17,0,5.306991e-17,1.550004e-16,0,0,0,0,0,0
2.728091,-0.26408,-10.863885,1.891618e-12,0,0,1.891618e-12,-1.110223e-16,0,3.826472e-17,0,0,0,0,1.191048e-17,-1.229328e-16,6.742163e-17,-62.289558,8.989551e-17,8.620007e-17,0,0,0,0,0,0
2.775382,-0.26408,-10.854552,1.891618e-12,0,0,1.891618e-12,0,2.220446e-16,-2.331509e-17,0,0,0,0,2.244663e-16,-2.421716e-18,1.13444e-16,-39.070007,1.512587e-16,1.504579e-16,0,0,0,0,0,0
2.822672,-0.26408,-10.841629,1.891618e-12,0,0,1.891618e-12,2.220446e-16,0,3.430982e-17,0,0,0,0,2.272252e-16,-5.180603e-18,1.162029e-16,53.586498,1.549372e-16,1.532395e-16,0,0,0,0,0,0
2.869963,-0.26408,-10.824322,1.891618e-12,0,0,1.891618e-12,2.220446e-16,2.220446e-16,5.417095e-19,0,0,0,0,2.225863e-16,2.215029e-16,5.417095e-19,90,7.222794e-19,1.480311e-16,0,0,0,0,0,0
2.917253,-0.26408,-10.80308,1.891618e-12,0,0,1.891618e-12,-3.330669e-16,0,1.045361e-17,0,0,0,0,3.277736e-19,-3.333947e-16,1.668612e-16,-46.795925,2.224816e-16,2.223725e-16,0,0,0,0,0,0
2.964544,-0.26408,-10.778123,1.891618e-12,0,0,1.891618e-12,2.220446e-16,2.220446e-16,2.514279e-18,0,0,0,0,2.245589e-16,2.195303e-16,2.514279e-18,90,3.352372e-18,1.480582e-16,0,0,0,0,0,0
3.011834,-0.26408,-10.750024,1.891618e-12,0,0,1.891618e-12,-1.110223e-16,0,1.770532e-17,0,0,0,0,2.755189e-18,-1.137775e-16,5.826634e-17,-53.845062,7.768845e-17,7.678653e-17,0,0,0,0,0,0
3.059125,-0.26408,-10.719499,1.891618e-12,0,0,1.891618e-12,0,2.220446e-16,9.049163e-19,0,0,0,0,2.220483e-16,-3.687817e-21,1.11026e-16,-45.233498,1.480347e-16,1.480334e-16,0,0,0,0,0,0
3.106415,-0.26408,-10.686396,1.891618e-12,0,0,1.891618e-12,0,2.220446e-16,-3.080802e-18,0,0,0,0,2.220874e-16,-4.273698e-20,1.11065e-16,-44.205242,1.480867e-16,1.480725e-16,0,0,0,0,0,0
3.153705,-0.26408,-10.649819,1.891618e-12,0,0,1.891618e-12,0,0,-1.394043e-17,0,0,0,0,1.394043e-17,-1.394043e-17,1.394043e-17,0,1.858723e-17,1.609702e-17,0,0,0,0,0,0
3.200996,-0.26408,-10.608994,1.891618e-12,0,0,1.891618e-12,2.220446e-16,0,-2.280043e-17,0,0,0,0,2.243617e-16,-2.31706e-18,1.133394e-16,39.197323,1.511191e-16,1.503527e-16,0,0,0,0,0,0
3.248286,-0.26408,-10.563365,1.891618e-12,0,0,1.891618e-12,0,0,1.916733e-17,0,0,0,0,1.916733e-17,-1.916733e-17,1.916733e-17,90,2.555644e-17,2.213253e-17,0,0,0,0,0,0
3.295577,-0.26408,-10.513455,1.891618e-12,0,0,1.891618e-12,2.220446e-16,2.220446e-16,-8.344713e-18,0,0,0,0,2.303893e-16,2.136999e-16,8.344713e-18,0,1.112628e-17,1.48343e-16,0,0,0,0,0,0
3.342867,-0.26408,-10.457274,1.891618e-12,0,0,1.891618e-12,-2.220446e-16,2.220446e-16,1.202085e-19,0,0,0,0,2.220446e-16,-2.220446e-16,2.220446e-16,-45.015511,2.960595e-16,2.563951e-16,0,0,0,0,0,0
3.390158,-0.26408,-10.416662,1.891618e-12,0,0,1.891618e-12,0,2.220446e-16,9.437428e-18,0,0,0,0,2.22445e-16,-4.003913e-19,1.114227e-16,-47.429367,1.485636e-16,1.484303e-16,0,0,0,0,0,0
1.451249,-0.311371,-10.108049,1.891618e-12,0,0,1.891618e-12,2.220446e-16,0,-8.911397e-17,0,0,0,0,2.533854e-16,-3.134079e-17,1.423631e-16,25.623564,1.898175e-16,1.802809e-16,0,0,0,0,0,0
1.49854,-0.311371,-10.223092,1.891618e-12,0,0,1.891618e-12,2.220446e-16,-2.220446e-16,-4.396784e-17,0,0,0,0,2.263559e-16,-2.263559e-16,2.263559e-16,39.399773,3.018078e-16,2.613732e-16,0,0,0,0,0,0
1.54583,-0.311371,-10.329823,1.891618e-12,0,0,1.891618e-12,-1.110223e-16,2.220446e-16,2.203331e-17,0,0,0,0,2.234958e-16,-1.124735e-16,1.679847e-16,-48.768391,2.239796e-16,1.974707e-16,0,0,0,0,0,0
1.593121,-0.311371,-10.413551,1.891618e-12,0,0,1.891618e-12,0,2.220446e-16,-8.428733e-18,0,0,0,0,2.223641e-16,-3.19492e-19,1.113418e-16,-42.829239,1.484557e-16,1.483493e-16,0,0,0,0,0,0
1.640411,-0.311371,-10.479587,1.891618e-12,0,0,1.891618e-12,0,-1.110223e-16,6.423558e-18,0,0,0,0,3.704201e-19,-1.113927e-16,5.588157e-17,48.300358,7.450876e-17,7.438559e-17,0,0,0,0,0,0
1.687701,-0.311371,-10.53625,1.891618e-12,0,0,1.891618e-12,-2.220446e-16,2.220446e-16,-3.569484e-18,0,0,0,0,2.220733e-16,-2.220733e-16,2.220733e-16,-44.539509,2.960977e-16,2.564282e-16,0,0,0,0,0,0
1.734992,-0.311371,-10.586965,1.891618e-12,0,0,1.891618e-12,-2.220446e-16,0,1.565733e-17,0,0,0,0,1.098631e-18,-2.231432e-16,1.121209e-16,-49.013706,1.494946e-16,1.491297e-16,0,0,0,0,0,0
1.782282,-0.311371,-10.631386,1.891618e-12,0,0,1.891618e-12,2.220446e-16,0,2.791251e-17,0,0,0,0,2.254996e-16,-3.455031e-18,1.144773e-16,52.056221,1.526364e-16,1.514979e-16,0,0,0,0,0,0
1.829573,-0.311371,-10.669653,1.891618e-12,0,0,1.891618e-12,2.220446e-16,-4.440892e-16,8.44869e-18,0,0,0,0,2.221518e-16,-4.441964e-16,3.331741e-16,45.726536,4.44232e-16,3.917713e-16,0,0,0,0,0,0
1.876863,-0.311371,-10.70186,1.891618e-12,0,0,1.891618e-12,-3.330669e-16,0,1.317416e-17,0,0,0,0,5.202795e-19,-3.335872e-16,1.670537e-16,-47.261574,2.227383e-16,2.225651e-16,0,0,0,0,0,0
1.924154,-0.311371,-10.730434,1.891618e-12,0,0,1.891618e-12,2.220446e-16,0,1.159262e-17,0,0,0,0,2.226482e-16,-6.035922e-19,1.116259e-16,47.980526,1.488345e-16,1.486337e-16,0,0,0,0,0,0
1.971444,-0.311371,-10.758397,1.891618e-12,0,0,1.891618e-12,0,2.220446e-16,-1.777166e-17,0,0,0,0,2.23458e-16,-1.413384e-18,1.124357e-16,-40.452827,1.499142e-16,1.494453e-16,0,0,0,0,0,0
2.018735,-0.311371,-10.787102,1.891618e-12,0,0,1.891618e-12,2.220446e-16,-1.110223e-16,-2.746529e-18,0,0,0,0,2.220673e-16,-1.110449e-16,1.665561e-16,44.527573,2.220748e-16,1.958506e-16,0,0,0,0,0,0
2.066025,-0.311371,-10.814822,1.891618e-12,0,0,1.891618e-12,0,-1.110223e-16,4.712055e-17,0,0,0,0,1.730254e-17,-1.283248e-16,7.281369e-17,65.163101,9.708492e-17,9.186219e-17,0,0,0,0,0,0
2.113316,-0.311371,-10.83872,1.891618e-12,0,0,1.891618e-12,-1.110223e-16,2.220446e-16,-3.956112e-18,0,0,0,0,2.220916e-16,-1.110693e-16,1.665804e-16,-44.31958,2.221073e-16,1.958782e-16,0,0,0,0,0,0
2.160606,-0.311371,-10.856476,1.891618e-12,0,0,1.891618e-12,-3.330669e-16,-1.110223e-16,-3.291211e-18,0,0,0,0,-1.109735e-16,-3.331157e-16,1.110711e-16,-44.150993,1.480948e-16,1.958618e-16,0,0,0,0,0,0
2.207896,-0.311371,-10.869288,1.891618e-12,0,0,1.891618e-12,-2.220446e-16,0,-5.40818e-17,0,0,0,0,1.24718e-17,-2.345164e-16,1.234941e-16,-32.01405,1.646588e-16,1.60663e-16,0,0,0,0,0,0
2.255187,-0.311371,-10.879015,1.891618e-12,0,0,1.891618e-12,2.220446e-16,-2.220446e-16,-1.630326e-18,0,0,0,0,2.220506e-16,-2.220506e-16,2.220506e-16,44.789661,2.960674e-16,2.564019e-16,0,0,0,0,0,0
2.302477,-0.311371,-10.886568,1.891618e-12,0,0,1.891618e-12,4.440892e-16,2.220446e-16,2.228055e-17,0,0,0,0,4.463028e-16,2.19831e-16,1.132359e-16,50.673843,1.509812e-16,2.576826e-16,0,0,0,0,0,0
2.349768,-0.311371,-10.891732,1.891618e-12,0,0,1.891618e-12,0,0,5.273198e-18,0,0,0,0,5.273198e-18,-5.273198e-18,5.273198e-18,90,7.03093e-18,6.088965e-18,0,0,0,0,0,0
2.397058,-0.311371,-10.894792,1.891618e-12,0,0,1.891618e-12,2.220446e-16,0,-1.627372e-17,0,0,0,0,2.23231e-16,-1.186368e-18,1.122087e-16,40.830467,1.496116e-16,1.492177e-16,0,0,0,0,0,0
2.444349,-0.311371,-10.896342,1.891618e-12,0,0,1.891618e-12,-2.220446e-16,0,3.002455e-17,0,0,0,0,3.988241e-18,-2.260329e-16,1.150105e-16,-52.566456,1.533474e-16,1.520354e-16,0,0,0,0,0,0
2.491639,-0.311371,-10.897055,1.891618e-12,0,0,1.891618e-12,-4.440892e-16,2.220446e-16,-8.97716e-17,0,0,0,0,2.339306e-16,-4.559752e-16,3.449529e-16,-37.457756,4.599372e-16,4.051356e-16,0,0,0,0,0,0
2.53893,-0.311371,-10.895165,1.891618e-12,0,0,1.891618e-12,-1.110223e-16,-2.220446e-16,-1.713411e-17,0,0,0,0,-1.084381e-16,-2.246288e-16,5.809532e-17,36.423302,7.746042e-17,1.297152e-16,0,0,0,0,0,0
2.58622,-0.311371,-10.889951,1.891618e-12,0,0,1.891618e-12,-2.220446e-16,-1.110223e-16,-2.653345e-17,0,0,0,0,-1.050069e-16,-2.2806e-16,6.152651e-17,-32.226471,8.203535e-17,1.318078e-16,0,0,0,0,0,0
2.633511,-0.311371,-10.882612,1.891618e-12,0,0,1.891618e-12,0,-1.110223e-16,-7.535907e-18,0,0,0,0,5.091827e-19,-1.115315e-16,5.602034e-17,41.134541,7.469378e-17,7.452463e-17,0,0,0,0,0,0
2.680801,-0.311371,-10.874687,1.891618e-12,0,0,1.891618e-12,4.440892e-16,0,3.026359e-17,0,0,0,0,4.461421e-16,-2.0529e-18,2.240975e-16,48.880653,2.987967e-16,2.981147e-16,0,0,0,0,0,0
2.728091,-0.311371,-10.866175,1.891618e-12,0,0,1.891618e-12,2.220446e-16,2.220446e-16,1.63737e-17,0,0,0,0,2.384183e-16,2.056709e-16,1.63737e-17,90,2.183161e-17,1.492323e-16,0,0,0,0,0,0
2.775382,-0.311371,-10.856257,1.891618e-12,0,0,1.891618e-12,2.220446e-16,-1.110223e-16,1.538882e-17,0,0,0,0,2.227541e-16,-1.117318e-16,1.67243e-16,47.639763,2.229906e-16,1.966295e-16,0,0,0,0,0,0
2.822672,-0.311371,-10.842773,1.891618e-12,0,0,1.891618e-12,-1.110223e-16,2.220446e-16,2.578038e-17,0,0,0,0,2.240283e-16,-1.13006e-16,1.685171e-16,-49.39994,2.246895e-16,1.980747e-16,0,0,0,0,0,0
2.869963,-0.311371,-10.825139,1.891618e-12,0,0,1.891618e-12,-2.220446e-16,-1.110223e-16,-3.791031e-17,0,0,0,0,-9.931233e-17,-2.337546e-16,6.722112e-17,-27.834801,8.962817e-17,1.354653e-16,0,0,0,0,0,0
2.917253,-0.311371,-10.803639,1.891618e-12,0,0,1.891618e-12,2.220446e-16,0,-3.811162e-17,0,0,0,0,2.284039e-16,-6.359327e-18,1.173816e-16,35.526867,1.565088e-16,1.544327e-16,0,0,0,0,0,0
2.964544,-0.311371,-10.778728,1.891618e-12,0,0,1.891618e-12,4.440892e-16,2.220446e-16,5.839255e-18,0,0,0,0,4.442427e-16,2.218911e-16,1.111758e-16,46.50536,1.482343e-16,2.564837e-16,0,0,0,0,0,0
3.011834,-0.311371,-10.750709,1.891618e-12,0,0,1.891618e-12,-1.110223e-16,2.220446e-16,1.749324e-17,0,0,0,0,2.229609e-16,-1.119386e-16,1.674497e-16,-47.998276,2.232663e-16,1.96864e-16,0,0,0,0,0,0
3.059125,-0.311371,-10.720334,1.891618e-12,0,0,1.891618e-12,-2.220446e-16,2.220446e-16,1.617617e-18,0,0,0,0,2.220505e-16,-2.220505e-16,2.220505e-16,-45.208698,2.960673e-16,2.564018e-16,0,0,0,0,0,0
3.106415,-0.311371,-10.687563,1.891618e-12,0,0,1.891618e-12,-2.220446e-16,2.220446e-16,-1.310967e-17,0,0,0,0,2.224313e-16,-2.224313e-16,2.224313e-16,-43.31057,2.96575e-16,2.568415e-16,0,0,0,0,0,0
3.153705,-0.311371,-10.651895,1.891618e-12,0,0,1.891618e-12,0,0,-4.54939e-17,0,0,0,0,4.54939e-17,-4.54939e-17,4.54939e-17,0,6.065854e-17,5.253183e-17,0,0,0,0,0,0
3.200996,-0.311371,-10.612118,1.891618e-12,0,0,1.891618e-12,0,0,5.796747e-17,0,0,0,0,5.796747e-17,-5.796747e-17,5.796747e-17,90,7.728996e-17,6.693507e-17,0,0,0,0,0,0
3.248286,-0.311371,-10.566584,1.891618e-12,0,0,1.891618e-12,-3.330669e-16,-2.220446e-16,3.72718e-17,0,0,0,0,-2.106927e-16,-3.444189e-16,6.686311e-17,-61.939278,8.915081e-17,2.004985e-16,0,0,0,0,0,0
3.295577,-0.311371,-10.51599,1.891618e-12,0,0,1.891618e-12,0,2.220446e-16,-1.378167e-17,0,0,0,0,2.228967e-16,-8.521184e-19,1.118744e-16,-41.461914,1.491659e-16,1.488827e-16,0,0,0,0,0,0
3.342867,-0.311371,-10.45743,1.891618e-12,0,0,1.891618e-12,2.220446e-16,2.220446e-16,4.045797e-17,0,0,0,0,2.625026e-16,1.815866e-16,4.045797e-17,90,5.394396e-17,1.552265e-16,0,0,0,0,0,0
3.390158,-0.311371,-10.414665,1.891618e-12,0,0,1.891618e-12,2.220446e-16,2.220446e-16,8.433006e-18,0,0,0,0,2.304776e-16,2.136116e-16,8.433006e-18,90,1.124401e-17,1.483497e-16,0,0,0,0,0,0
1.451249,-0.358661,-10.109858,1.891618e-12,0,0,1.891618e-12,2.220446e-16,0,-5.272467e-18,0,0,0,0,2.221697e-16,-1.251246e-19,1.111474e-16,43.64053,1.481966e-16,1.481549e-16,0,0,0,0,0,0
1.49854,-0.358661,-10.224792,1.891618e-12,0,0,1.891618e-12,-2.220446e-16,-2.220446e-16,-1.531947e-17,0,0,0,0,-2.067251e-16,-2.373641e-16,1.531947e-17,0,2.042596e-17,1.490829e-16,0,0,0,0,0,0
1.54583,-0.358661,-10.330723,1.891618e-12,0,0,1.891618e-12,0,-1.110223e-16,-5.340157e-17,0,0,0,0,2.151622e-17,-1.325385e-16,7.702737e-17,23.054825,1.027032e-16,9.633538e-17,0,0,0,0,0,0
1.593121,-0.358661,-10.413992,1.891618e-12,0,0,1.891618e-12,0,4.440892e-16,-4.176937e-17,0,0,0,0,4.479837e-16,-3.894516e-18,2.259391e-16,-39.673222,3.012522e-16,2.999624e-16,0,0,0,0,0,0
1.640411,-0.358661,-10.479343,1.891618e-12,0,0,1.891618e-12,-4.440892e-16,0,-1.726424e-17,0,0,0,0,6.701469e-19,-4.447594e-16,2.227147e-16,-42.777061,2.96953e-16,2.967299e-16,0,0,0,0,0,0
1.687701,-0.358661,-10.535754,1.891618e-12,0,0,1.891618e-12,0,-1.110223e-16,1.609525e-17,0,0,0,0,2.286298e-18,-1.133086e-16,5.779745e-17,53.08466,7.706326e-17,7.631259e-17,0,0,0,0,0,0
1.734992,-0.358661,-10.586338,1.891618e-12,0,0,1.891618e-12,4.440892e-16,-1.110223e-16,1.169465e-17,0,0,0,0,4.443355e-16,-1.112686e-16,2.77802e-16,46.206348,3.704027e-16,3.394474e-16,0,0,0,0,0,0
1.782282,-0.358661,-10.630382,1.891618e-12,0,0,1.891618e-12,0,-1.110223e-16,5.309607e-17,0,0,0,0,2.130473e-17,-1.32327e-16,7.681589e-17,66.863068,1.024212e-16,9.610996e-17,0,0,0,0,0,0
1.829573,-0.358661,-10.66825,1.891618e-12,0,0,1.891618e-12,0,-2.220446e-16,2.951052e-17,0,0,0,0,3.85512e-18,-2.258997e-16,1.148774e-16,52.442715,1.531699e-16,1.519012e-16,0,0,0,0,0,0
1.876863,-0.358661,-10.700644,1.891618e-12,0,0,1.891618e-12,0,2.220446e-16,-2.858238e-17,0,0,0,0,2.256648e-16,-3.620204e-18,1.146425e-16,-37.781437,1.528567e-16,1.516643e-16,0,0,0,0,0,0
1.924154,-0.358661,-10.72998,1.891618e-12,0,0,1.891618e-12,0,2.220446e-16,7.187843e-18,0,0,0,0,2.22277e-16,-2.324356e-19,1.112547e-16,-46.852146,1.483396e-16,1.482622e-16,0,0,0,0,0,0
1.971444,-0.358661,-10.758721,1.891618e-12,0,0,1.891618e-12,0,-1.110223e-16,-4.679533e-17,0,0,0,0,1.709251e-17,-1.281148e-16,7.260365e-17,24.934727,9.680487e-17,9.164026e-17,0,0,0,0,0,0
2.018735,-0.358661,-10.788099,1.891618e-12,0,0,1.891618e-12,2.220446e-16,0,3.464105e-17,0,0,0,0,2.273234e-16,-5.278834e-18,1.163011e-16,53.664455,1.550682e-16,1.533389e-16,0,0,0,0,0,0
2.066025,-0.358661,-10.816646,1.891618e-12,0,0,1.891618e-12,0,0,-2.997528e-18,0,0,0,0,2.997528e-18,-2.997528e-18,2.997528e-18,0,3.996704e-18,3.461248e-18,0,0,0,0,0,0
2.113316,-0.358661,-10.841614,1.891618e-12,0,0,1.891618e-12,2.220446e-16,0,1.182827e-17,0,0,0,0,2.226729e-16,-6.283119e-19,1.116506e-16,48.040665,1.488675e-16,1.486585e-16,0,0,0,0,0,0
2.160606,-0.358661,-10.860921,1.891618e-12,0,0,1.891618e-12,2.220446e-16,-1.110223e-16,1.961641e-17,0,0,0,0,2.23196e-16,-1.121737e-16,1.676848e-16,48.359032,2.235797e-16,1.971306e-16,0,0,0,0,0,0
2.207896,-0.358661,-10.874916,1.891618e-12,0,0,1.891618e-12,-2.220446e-16,-2.220446e-16,-1.13699e-17,0,0,0,0,-2.106747e-16,-2.334145e-16,1.13699e-17,0,1.515986e-17,1.486108e-16,0,0,0,0,0,0
2.255187,-0.358661,-10.885335,1.891618e-12,0,0,1.891618e-12,-1.110223e-16,0,2.620866e-17,0,0,0,0,5.875993e-18,-1.168983e-16,6.138714e-17,-57.636776,8.184953e-17,7.996286e-17,0,0,0,0,0,0
2.302477,-0.358661,-10.893175,1.891618e-12,0,0,1.891618e-12,2.220446e-16,2.220446e-16,1.000917e-17,0,0,0,0,2.320538e-16,2.120354e-16,1.000917e-17,90,1.334555e-17,1.484802e-16,0,0,0,0,0,0
2.349768,-0.358661,-10.89831,1.891618e-12,0,0,1.891618e-12,-1.110223e-16,-1.110223e-16,9.136906e-18,0,0,0,0,-1.018854e-16,-1.201592e-16,9.136906e-18,90,1.218254e-17,7.476303e-17,0,0,0,0,0,0
2.397058,-0.358661,-10.900643,1.891618e-12,0,0,1.891618e-12,0,-1.110223e-16,3.932065e-18,0,0,0,0,1.390873e-19,-1.111614e-16,5.565024e-17,47.025856,7.420032e-17,7.4154e-17,0,0,0,0,0,0
2.444349,-0.358661,-10.901084,1.891618e-12,0,0,1.891618e-12,-4.440892e-16,-4.440892e-16,-1.952599e-17,0,0,0,0,-4.245632e-16,-4.636152e-16,1.952599e-17,0,2.603465e-17,2.969168e-16,0,0,0,0,0,0
2.491639,-0.358661,-10.900373,1.891618e-12,0,0,1.891618e-12,-1.110223e-16,-1.110223e-16,-2.817028e-17,0,0,0,0,-8.285202e-17,-1.391926e-16,2.817028e-17,0,3.756038e-17,8.084731e-17,0,0,0,0,0,0
2.53893,-0.358661,-10.897352,1.891618e-12,0,0,1.891618e-12,2.220446e-16,4.440892e-16,4.853742e-18,0,0,0,0,4.441952e-16,2.219386e-16,1.111284e-16,-46.251648,1.481711e-16,2.564563e-16,0,0,0,0,0,0
2.58622,-0.358661,-10.891681,1.891618e-12,0,0,1.891618e-12,-1.110223e-16,-1.110223e-16,8.833963e-18,0,0,0,0,-1.021883e-16,-1.198563e-16,8.833963e-18,90,1.177862e-17,7.471447e-17,0,0,0,0,0,0
2.633511,-0.358661,-10.88421,1.891618e-12,0,0,1.891618e-12,-1.110223e-16,0,2.033439e-17,0,0,0,0,3.607164e-18,-1.146295e-16,5.911831e-17,-55.059189,7.882442e-17,7.764997e-17,0,0,0,0,0,0
2.680801,-0.358661,-10.876161,1.891618e-12,0,0,1.891618e-12,2.220446e-16,-1.110223e-16,-3.288854e-17,0,0,0,0,2.252611e-16,-1.142388e-16,1.6975e-16,39.414234,2.263333e-16,1.994733e-16,0,0,0,0,0,0
2.728091,-0.358661,-10.867558,1.891618e-12,0,0,1.891618e-12,0,-1.110223e-16,2.043978e-17,0,0,0,0,3.643497e-18,-1.146658e-16,5.915465e-17,55.107113,7.887286e-17,7.768685e-17,0,0,0,0,0,0
2.775382,-0.358661,-10.857556,1.891618e-12,0,0,1.891618e-12,0,4.440892e-16,-3.621909e-17,0,0,0,0,4.470238e-16,-2.93457e-18,2.249792e-16,-40.367859,2.999722e-16,2.989988e-16,0,0,0,0,0,0
2.822672,-0.358661,-10.844204,1.891618e-12,0,0,1.891618e-12,0,0,4.03222e-17,0,0,0,0,4.03222e-17,-4.03222e-17,4.03222e-17,90,5.376293e-17,4.656006e-17,0,0,0,0,0,0
2.869963,-0.358661,-10.827158,1.891618e-12,0,0,1.891618e-12,0,2.220446e-16,2.94297e-17,0,0,0,0,2.25879e-16,-3.834385e-18,1.148567e-16,-52.423233,1.531422e-16,1.518803e-16,0,0,0,0,0,0
2.917253,-0.358661,-10.806453,1.891618e-12,0,0,1.891618e-12,-1.110223e-16,2.220446e-16,-2.86872e-17,0,0,0,0,2.244974e-16,-1.134751e-16,1.689862e-16,-40.113052,2.25315e-16,1.986068e-16,0,0,0,0,0,0
2.964544,-0.358661,-10.782416,1.891618e-12,0,0,1.891618e-12,-2.220446e-16,-2.220446e-16,8.379542e-18,0,0,0,0,-2.136651e-16,-2.304241e-16,8.379542e-18,90,1.117272e-17,1.483456e-16,0,0,0,0,0,0
3.011834,-0.358661,-10.754968,1.891618e-12,0,0,1.891618e-12,-1.110223e-16,0,-6.228804e-18,0,0,0,0,3.483682e-19,-1.113707e-16,5.585952e-17,-41.798862,7.447936e-17,7.436351e-17,0,0,0,0,0,0
3.059125,-0.358661,-10.724844,1.891618e-12,0,0,1.891618e-12,0,0,2.512389e-17,0,0,0,0,2.512389e-17,-2.512389e-17,2.512389e-17,90,3.349853e-17,2.901057e-17,0,0,0,0,0,0
3.106415,-0.358661,-10.692381,1.891618e-12,0,0,1.891618e-12,0,2.220446e-16,6.059395e-17,0,0,0,0,2.375038e-16,-1.545923e-17,1.264815e-16,-59.312454,1.68642e-16,1.637324e-16,0,0,0,0,0,0
3.153705,-0.358661,-10.657288,1.891618e-12,0,0,1.891618e-12,-2.220446e-16,-1.110223e-16,3.61235e-17,0,0,0,0,-1.003036e-16,-2.327633e-16,6.622986e-17,-61.526894,8.830649e-17,1.348128e-16,0,0,0,0,0,0
3.200996,-0.358661,-10.618125,1.891618e-12,0,0,1.891618e-12,-2.220446e-16,2.220446e-16,1.101537e-19,0,0,0,0,2.220446e-16,-2.220446e-16,2.220446e-16,-45.014214,2.960595e-16,2.56395e-16,0,0,0,0,0,0
3.248286,-0.358661,-10.573001,1.891618e-12,0,0,1.891618e-12,-2.220446e-16,-1.110223e-16,-9.046791e-18,0,0,0,0,-1.102899e-16,-2.22777e-16,5.624351e-17,-40.371868,7.499135e-17,1.286224e-16,0,0,0,0,0,0
3.295577,-0.358661,-10.521337,1.891618e-12,0,0,1.891618e-12,2.220446e-16,-1.110223e-16,-4.266661e-17,0,0,0,0,2.274234e-16,-1.164011e-16,1.719123e-16,37.814835,2.292164e-16,2.019274e-16,0,0,0,0,0,0
3.342867,-0.358661,-10.460194,1.891618e-12,0,0,1.891618e-12,-2.220446e-16,-1.110223e-16,-1.130427e-19,0,0,0,0,-1.110222e-16,-2.220447e-16,5.551126e-17,-44.941662,7.401502e-17,1.281976e-16,0,0,0,0,0,0
3.390158,-0.358661,-10.415075,1.891618e-12,0,0,1.891618e-12,-4.440892e-16,2.220446e-16,-1.77654e-17,0,0,0,0,2.225181e-16,-4.445626e-16,3.335404e-16,-43.4734,4.447205e-16,3.921867e-16,0,0,0,0,0,0
1.451249,-0.405952,-10.113627,1.891618e-12,0,0,1.891618e-12,2.220446e-16,-1.110223e-16,8.355275e-17,0,0,0,0,2.418293e-16,-1.30807e-16,1.863182e-16,58.321861,2.484242e-16,2.183014e-16,0,0,0,0,0,0
1.49854,-0.405952,-10.22886,1.891618e-12,0,0,1.891618e-12,-2.220446e-16,2.220446e-16,-6.653081e-18,0,0,0,0,2.221443e-16,-2.221443e-16,2.221443e-16,-44.141884,2.961923e-16,2.565101e-16,0,0,0,0,0,0
1.54583,-0.405952,-10.334452,1.891618e-12,0,0,1.891618e-12,0,2.220446e-16,-8.042723e-17,0,0,0,0,2.481153e-16,-2.60707e-17,1.37093e-16,-27.039761,1.827907e-16,1.747499e-16,0,0,0,0,0,0
1.593121,-0.405952,-10.417631,1.891618e-12,0,0,1.891618e-12,2.220446e-16,0,-2.826971e-17,0,0,0,0,2.255873e-16,-3.542651e-18,1.14565e-16,37.857151,1.527533e-16,1.515862e-16,0,0,0,0,0,0
1.640411,-0.405952,-10.481616,1.891618e-12,0,0,1.891618e-12,2.220446e-16,2.220446e-16,4.426374e-17,0,0,0,0,2.663083e-16,1.777809e-16,4.426374e-17,90,5.901832e-17,1.566052e-16,0,0,0,0,0,0
1.687701,-0.405952,-10.537281,1.891618e-12,0,0,1.891618e-12,0,-1.110223e-16,-2.946726e-17,0,0,0,0,7.336341e-18,-1.183586e-16,6.28475e-17,31.019537,8.379666e-17,8.14614e-17,0,0,0,0,0,0
1.734992,-0.405952,-10.58768,1.891618e-12,0,0,1.891618e-12,-2.220446e-16,-1.110223e-16,-3.381335e-17,0,0,0,0,-1.015348e-16,-2.315321e-16,6.499869e-17,-29.326635,8.666493e-17,1.340114e-16,0,0,0,0,0,0
1.782282,-0.405952,-10.63164,1.891618e-12,0,0,1.891618e-12,0,2.220446e-16,-2.082863e-17,0,0,0,0,2.239815e-16,-1.936909e-18,1.129592e-16,-39.687195,1.506123e-16,1.499708e-16,0,0,0,0,0,0
1.829573,-0.405952,-10.669717,1.891618e-12,0,0,1.891618e-12,0,2.220446e-16,2.176144e-17,0,0,0,0,2.241572e-16,-2.112626e-18,1.131349e-16,-50.544964,1.508466e-16,1.501473e-16,0,0,0,0,0,0
1.876863,-0.405952,-10.70285,1.891618e-12,0,0,1.891618e-12,-4.440892e-16,2.220446e-16,3.145923e-17,0,0,0,0,2.23527e-16,-4.455716e-16,3.345493e-16,-47.69788,4.460658e-16,3.933309e-16,0,0,0,0,0,0
1.924154,-0.405952,-10.733175,1.891618e-12,0,0,1.891618e-12,2.220446e-16,0,2.676376e-17,0,0,0,0,2.25225e-16,-3.18037e-18,1.142027e-16,51.776749,1.522702e-16,1.512213e-16,0,0,0,0,0,0
1.971444,-0.405952,-10.762456,1.891618e-12,0,0,1.891618e-12,2.220446e-16,2.220446e-16,1.93764e-18,0,0,0,0,2.239822e-16,2.20107e-16,1.93764e-18,90,2.58352e-18,1.480466e-16,0,0,0,0,0,0
2.018735,-0.405952,-10.791727,1.891618e-12,0,0,1.891618e-12,2.220446e-16,0,3.023713e-17,0,0,0,0,2.260885e-16,-4.043921e-18,1.150662e-16,52.61755,1.534216e-16,1.520916e-16,0,0,0,0,0,0
2.066025,-0.405952,-10.819896,1.891618e-12,0,0,1.891618e-12,-1.110223e-16,-1.110223e-16,2.701856e-17,0,0,0,0,-8.400374e-17,-1.380409e-16,2.701856e-17,90,3.602475e-17,8.032146e-17,0,0,0,0,0,0
2.113316,-0.405952,-10.844696,1.891618e-12,0,0,1.891618e-12,2.220446e-16,0,-1.835038e-17,0,0,0,0,2.235509e-16,-1.506308e-18,1.125286e-16,40.307346,1.500381e-16,1.495386e-16,0,0,0,0,0,0
2.160606,-0.405952,-10.864513,1.891618e-12,0,0,1.891618e-12,2.220446e-16,0,-1.386367e-17,0,0,0,0,2.229069e-16,-8.622497e-19,1.118846e-16,41.441078,1.491794e-16,1.488928e-16,0,0,0,0,0,0
2.207896,-0.405952,-10.879196,1.891618e-12,0,0,1.891618e-12,0,0,2.611702e-17,0,0,0,0,2.611702e-17,-2.611702e-17,2.611702e-17,90,3.482269e-17,3.015733e-17,0,0,0,0,0,0
2.255187,-0.405952,-10.890123,1.891618e-12,0,0,1.891618e-12,0,2.220446e-16,-2.790905e-17,0,0,0,0,2.254988e-16,-3.454187e-18,1.144765e-16,-37.944618,1.526353e-16,1.514971e-16,0,0,0,0,0,0
2.302477,-0.405952,-10.898254,1.891618e-12,0,0,1.891618e-12,-2.220446e-16,2.220446e-16,-1.694131e-17,0,0,0,0,2.2269e-16,-2.2269e-16,2.2269e-16,-42.818481,2.969199e-16,2.571402e-16,0,0,0,0,0,0
2.349768,-0.405952,-10.90356,1.891618e-12,0,0,1.891618e-12,-4.440892e-16,0,-4.456491e-18,0,0,0,0,4.471695e-20,-4.441339e-16,2.220893e-16,-44.425106,2.961191e-16,2.961042e-16,0,0,0,0,0,0
2.397058,-0.405952,-10.905583,1.891618e-12,0,0,1.891618e-12,0,2.220446e-16,1.030512e-17,0,0,0,0,2.225218e-16,-4.772366e-19,1.114995e-16,-47.651508,1.48666e-16,1.485072e-16,0,0,0,0,0,0
2.444349,-0.405952,-10.905177,1.891618e-12,0,0,1.891618e-12,0,0,-1.398437e-17,0,0,0,0,1.398437e-17,-1.398437e-17,1.398437e-17,0,1.864582e-17,1.614776e-17,0,0,0,0,0,0
2.491639,-0.405952,-10.903222,1.891618e-12,0,0,1.891618e-12,2.220446e-16,0,-1.231948e-17,0,0,0,0,2.22726e-16,-6.814179e-19,1.117037e-16,41.834068,1.489383e-16,1.487117e-16,0,0,0,0,0,0
2.53893,-0.405952,-10.899165,1.891618e-12,0,0,1.891618e-12,2.220446e-16,2.220446e-16,-2.933385e-17,0,0,0,0,2.513784e-16,1.927108e-16,2.933385e-17,0,3.91118e-17,1.518555e-16,0,0,0,0,0,0
2.58622,-0.405952,-10.893103,1.891618e-12,0,0,1.891618e-12,-2.220446e-16,2.220446e-16,1.949511e-18,0,0,0,0,2.220532e-16,-2.220532e-16,2.220532e-16,-45.251518,2.960709e-16,2.564049e-16,0,0,0,0,0,0
2.633511,-0.405952,-10.885623,1.891618e-12,0,0,1.891618e-12,-2.220446e-16,2.220446e-16,2.220587e-17,0,0,0,0,2.231522e-16,-2.231522e-16,2.231522e-16,-47.855476,2.975363e-16,2.57674e-16,0,0,0,0,0,0
2.680801,-0.405952,-10.877653,1.891618e-12,0,0,1.891618e-12,2.220446e-16,2.220446e-16,-1.331207e-17,0,0,0,0,2.353567e-16,2.087325e-16,1.331207e-17,0,1.774942e-17,1.488257e-16,0,0,0,0,0,0
2.728091,-0.405952,-10.869177,1.891618e-12,0,0,1.891618e-12,2.220446e-16,-1.110223e-16,1.609562e-17,0,0,0,0,2.228206e-16,-1.117983e-16,1.673095e-16,47.760273,2.230793e-16,1.967049e-16,0,0,0,0,0,0
2.775382,-0.405952,-10.859295,1.891618e-12,0,0,1.891618e-12,2.220446e-16,0,2.88686e-17,0,0,0,0,2.257365e-16,-3.691898e-18,1.147142e-16,52.287785,1.529523e-16,1.517366e-16,0,0,0,0,0,0
2.822672,-0.405952,-10.846451,1.891618e-12,0,0,1.891618e-12,2.220446e-16,0,1.394003e-18,0,0,0,0,2.220534e-16,-8.751245e-21,1.110311e-16,45.359684,1.480414e-16,1.480385e-16,0,0,0,0,0,0
2.869963,-0.405952,-10.830386,1.891618e-12,0,0,1.891618e-12,-2.220446e-16,-1.110223e-16,2.578543e-17,0,0,0,0,-1.053258e-16,-2.277411e-16,6.120765e-17,-57.457645,8.16102e-17,1.316097e-16,0,0,0,0,0,0
2.917253,-0.405952,-10.810982,1.891618e-12,0,0,1.891618e-12,2.220446e-16,0,3.726898e-17,0,0,0,0,2.281331e-16,-6.08845e-18,1.171107e-16,54.278172,1.561477e-16,1.541583e-16,0,0,0,0,0,0
2.964544,-0.405952,-10.788156,1.891618e-12,0,0,1.891618e-12,0,2.220446e-16,-5.571118e-17,0,0,0,0,2.352386e-16,-1.319399e-17,1.242163e-16,-31.67621,1.656217e-16,1.614036e-16,0,0,0,0,0,0
3.011834,-0.405952,-10.761447,1.891618e-12,0,0,1.891618e-12,0,0,4.924628e-18,0,0,0,0,4.924628e-18,-4.924628e-18,4.924628e-18,90,6.566171e-18,5.686471e-18,0,0,0,0,0,0
3.059125,-0.405952,-10.73153,1.891618e-12,0,0,1.891618e-12,0,2.220446e-16,3.274915e-17,0,0,0,0,2.26774e-16,-4.729407e-18,1.157517e-16,-53.217453,1.543356e-16,1.527835e-16,0,0,0,0,0,0
3.106415,-0.405952,-10.699215,1.891618e-12,0,0,1.891618e-12,-4.440892e-16,2.220446e-16,5.294896e-17,0,0,0,0,2.262271e-16,-4.482717e-16,3.372494e-16,-49.516472,4.496659e-16,3.963934e-16,0,0,0,0,0,0
3.153705,-0.405952,-10.66447,1.891618e-12,0,0,1.891618e-12,-2.220446e-16,0,-6.211434e-18,0,0,0,0,1.736217e-19,-2.222182e-16,1.111959e-16,-43.398888,1.482612e-16,1.482034e-16,0,0,0,0,0,0
3.200996,-0.405952,-10.625999,1.891618e-12,0,0,1.891618e-12,2.220446e-16,0,2.205777e-17,0,0,0,0,2.242146e-16,-2.169998e-18,1.131923e-16,50.618561,1.509231e-16,1.50205e-16,0,0,0,0,0,0
3.248286,-0.405952,-10.581369,1.891618e-12,0,0,1.891618e-12,0,0,2.060582e-17,0,0,0,0,2.060582e-17,-2.060582e-17,2.060582e-17,90,2.747443e-17,2.379356e-17,0,0,0,0,0,0
3.295577,-0.405952,-10.528427,1.891618e-12,0,0,1.891618e-12,0,0,-4.682788e-17,0,0,0,0,4.682788e-17,-4.682788e-17,4.682788e-17,0,6.243717e-17,5.407218e-17,0,0,0,0,0,0
3.342867,-0.405952,-10.464363,1.891618e-12,0,0,1.891618e-12,-2.220446e-16,-1.110223e-16,-4.599656e-17,0,0,0,0,-9.444204e-17,-2.386249e-16,7.209141e-17,-25.17742,9.612188e-17,1.387642e-16,0,0,0,0,0,0
3.390158,-0.405952,-10.416648,1.891618e-12,0,0,1.891618e-12,-1.110223e-16,-1.110223e-16,6.093532e-17,0,0,0,0,-5.008698e-17,-1.719576e-16,6.093532e-17,90,8.124709e-17,1.021226e-16,0,0,0,0,0,0
1.451249,-0.453242,-10.118041,1.891618e-12,0,0,1.891618e-12,2.220446e-16,2.220446e-16,-3.275539e-17,0,0,0,0,2.548e-16,1.892892e-16,3.275539e-17,0,4.367385e-17,1.527853e-16,0,0,0,0,0,0
1.49854,-0.453242,-10.233397,1.891618e-12,0,0,1.891618e-12,0,-2.220446e-16,-1.122922e-17,0,0,0,0,5.664384e-19,-2.22611e-16,1.115887e-16,42.112263,1.48785e-16,1.485965e-16,0,0,0,0,0,0
1.54583,-0.453242,-10.339046,1.891618e-12,0,0,1.891618e-12,0,-5.551115e-16,-5.260392e-17,0,0,0,0,4.940916e-18,-5.600524e-16,2.824967e-16,39.634136,3.766622e-16,3.750261e-16,0,0,0,0,0,0
1.593121,-0.453242,-10.422702,1.891618e-12,0,0,1.891618e-12,-1.110223e-16,2.220446e-16,-1.43969e-17,0,0,0,0,2.226657e-16,-1.116435e-16,1.671546e-16,-42.529518,2.228728e-16,1.965293e-16,0,0,0,0,0,0
1.640411,-0.453242,-10.485764,1.891618e-12,0,0,1.891618e-12,-3.330669e-16,2.220446e-16,-9.869228e-18,0,0,0,0,2.2222e-16,-3.332423e-16,2.777312e-16,-43.981777,3.703082e-16,3.228245e-16,0,0,0,0,0,0
1.687701,-0.453242,-10.540835,1.891618e-12,0,0,1.891618e-12,-2.220446e-16,2.220446e-16,-5.326952e-18,0,0,0,0,2.221085e-16,-2.221085e-16,2.221085e-16,-44.312855,2.961447e-16,2.564688e-16,0,0,0,0,0,0
1.734992,-0.453242,-10.59124,1.891618e-12,0,0,1.891618e-12,0,2.220446e-16,-9.860208e-18,0,0,0,0,2.224816e-16,-4.369966e-19,1.114593e-16,-42.462357,1.486124e-16,1.484669e-16,0,0,0,0,0,0
1.782282,-0.453242,-10.635305,1.891618e-12,0,0,1.891618e-12,0,2.220446e-16,1.932633e-17,0,0,0,0,2.237142e-16,-1.669573e-18,1.126919e-16,-49.937439,1.502558e-16,1.497024e-16,0,0,0,0,0,0
1.829573,-0.453242,-10.673949,1.891618e-12,0,0,1.891618e-12,2.220446e-16,0,1.028037e-18,0,0,0,0,2.220494e-16,-4.759577e-21,1.110271e-16,45.265263,1.480361e-16,1.480345e-16,0,0,0,0,0,0
1.876863,-0.453242,-10.708151,1.891618e-12,0,0,1.891618e-12,2.220446e-16,-1.110223e-16,1.93591e-17,0,0,0,0,2.231661e-16,-1.121437e-16,1.676549e-16,48.315365,2.235399e-16,1.970967e-16,0,0,0,0,0,0
1.924154,-0.453242,-10.73919,1.891618e-12,0,0,1.891618e-12,0,2.220446e-16,7.763179e-18,0,0,0,0,2.223157e-16,-2.710872e-19,1.112934e-16,-46.999935,1.483912e-16,1.483009e-16,0,0,0,0,0,0
1.971444,-0.453242,-10.768286,1.891618e-12,0,0,1.891618e-12,-1.110223e-16,0,-9.446481e-18,0,0,0,0,7.980303e-19,-1.118203e-16,5.630918e-17,-40.171169,7.507891e-17,7.481432e-17,0,0,0,0,0,0
2.018735,-0.453242,-10.796231,1.891618e-12,0,0,1.891618e-12,-1.110223e-16,-2.220446e-16,-1.078103e-17,0,0,0,0,-1.099851e-16,-2.230818e-16,5.654838e-17,39.504597,7.539783e-17,1.288005e-16,0,0,0,0,0,0
2.066025,-0.453242,-10.822332,1.891618e-12,0,0,1.891618e-12,2.220446e-16,-1.110223e-16,-3.851892e-18,0,0,0,0,2.220892e-16,-1.110668e-16,1.66578e-16,44.337498,2.22104e-16,1.958754e-16,0,0,0,0,0,0
2.113316,-0.453242,-10.845689,1.891618e-12,0,0,1.891618e-12,2.220446e-16,2.220446e-16,-1.958405e-17,0,0,0,0,2.416287e-16,2.024606e-16,1.958405e-17,0,2.611207e-17,1.497471e-16,0,0,0,0,0,0
2.160606,-0.453242,-10.865221,1.891618e-12,0,0,1.891618e-12,2.220446e-16,0,-1.02625e-17,0,0,0,0,2.225179e-16,-4.733054e-19,1.114956e-16,42.359398,1.486608e-16,1.485033e-16,0,0,0,0,0,0
2.207896,-0.453242,-10.880384,1.891618e-12,0,0,1.891618e-12,2.220446e-16,2.220446e-16,-1.477659e-17,0,0,0,0,2.368212e-16,2.07268e-16,1.477659e-17,0,1.970212e-17,1.490098e-16,0,0,0,0,0,0
2.255187,-0.453242,-10.89214,1.891618e-12,0,0,1.891618e-12,2.220446e-16,0,1.684117e-17,0,0,0,0,2.233147e-16,-1.270068e-18,1.122924e-16,49.312771,1.497232e-16,1.493016e-16,0,0,0,0,0,0
2.302477,-0.453242,-10.901207,1.891618e-12,0,0,1.891618e-12,-2.220446e-16,2.220446e-16,3.211572e-17,0,0,0,0,2.243551e-16,-2.243551e-16,2.243551e-16,-49.11499,2.991402e-16,2.59063e-16,0,0,0,0,0,0
2.349768,-0.453242,-10.907264,1.891618e-12,0,0,1.891618e-12,2.220446e-16,0,-1.924666e-17,0,0,0,0,2.237006e-16,-1.655937e-18,1.126782e-16,40.08252,1.502377e-16,1.496887e-16,0,0,0,0,0,0
2.397058,-0.453242,-10.909826,1.891618e-12,0,0,1.891618e-12,2.220446e-16,0,-5.011655e-18,0,0,0,0,2.221577e-16,-1.130579e-19,1.111354e-16,43.707684,1.481805e-16,1.481428e-16,0,0,0,0,0,0
2.444349,-0.453242,-10.909351,1.891618e-12,0,0,1.891618e-12,2.220446e-16,-2.220446e-16,4.024273e-17,0,0,0,0,2.256619e-16,-2.256619e-16,2.256619e-16,50.136311,3.008825e-16,2.605719e-16,0,0,0,0,0,0
2.491639,-0.453242,-10.90695,1.891618e-12,0,0,1.891618e-12,-2.220446e-16,2.220446e-16,2.943587e-17,0,0,0,0,2.239872e-16,-2.239872e-16,2.239872e-16,-48.775761,2.986496e-16,2.586382e-16,0,0,0,0,0,0
2.53893,-0.453242,-10.90245,1.891618e-12,0,0,1.891618e-12,-1.110223e-16,-1.110223e-16,-1.683002e-17,0,0,0,0,-9.419229e-17,-1.278523e-16,1.683002e-17,0,2.244002e-17,7.652364e-17,0,0,0,0,0,0
2.58622,-0.453242,-10.896371,1.891618e-12,0,0,1.891618e-12,2.220446e-16,0,2.511111e-17,0,0,0,0,2.24849e-16,-2.804406e-18,1.138267e-16,51.372379,1.517689e-16,1.508428e-16,0,0,0,0,0,0
2.633511,-0.453242,-10.888896,1.891618e-12,0,0,1.891618e-12,-1.110223e-16,0,5.749165e-18,0,0,0,0,2.969199e-19,-1.113192e-16,5.580807e-17,-47.956455,7.441076e-17,7.431199e-17,0,0,0,0,0,0
2.680801,-0.453242,-10.88084,1.891618e-12,0,0,1.891618e-12,0,-4.440892e-16,-1.051165e-17,0,0,0,0,2.486728e-19,-4.443379e-16,2.222933e-16,43.644814,2.96391e-16,2.963082e-16,0,0,0,0,0,0
2.728091,-0.453242,-10.872322,1.891618e-12,0,0,1.891618e-12,2.220446e-16,-2.220446e-16,-4.134204e-17,0,0,0,0,2.258605e-16,-2.258605e-16,2.258605e-16,39.72649,3.011473e-16,2.608013e-16,0,0,0,0,0,0
2.775382,-0.453242,-10.862529,1.891618e-12,0,0,1.891618e-12,-1.110223e-16,0,3.349227e-19,0,0,0,0,1.010357e-21,-1.110233e-16,5.551216e-17,-45.172844,7.401621e-17,7.401588e-17,0,0,0,0,0,0
2.822672,-0.453242,-10.850033,1.891618e-12,0,0,1.891618e-12,0,-2.220446e-16,3.492384e-18,0,0,0,0,5.491569e-20,-2.220995e-16,1.110772e-16,45.900867,1.48103e-16,1.480847e-16,0,0,0,0,0,0
2.869963,-0.453242,-10.834551,1.891618e-12,0,0,1.891618e-12,-1.110223e-16,-1.110223e-16,2.325623e-17,0,0,0,0,-8.776608e-17,-1.342785e-16,2.325623e-17,90,3.10083e-17,7.873587e-17,0,0,0,0,0,0
2.917253,-0.453242,-10.815819,1.891618e-12,0,0,1.891618e-12,0,2.220446e-16,1.450831e-17,0,0,0,0,2.229886e-16,-9.43955e-19,1.119663e-16,-48.722591,1.492883e-16,1.489747e-16,0,0,0,0,0,0
2.964544,-0.453242,-10.793638,1.891618e-12,0,0,1.891618e-12,0,0,8.06995e-18,0,0,0,0,8.06995e-18,-8.06995e-18,8.06995e-18,90,1.075993e-17,9.318376e-18,0,0,0,0,0,0
3.011834,-0.453242,-10.767373,1.891618e-12,0,0,1.891618e-12,2.220446e-16,2.220446e-16,-3.792941e-19,0,0,0,0,2.224239e-16,2.216653e-16,3.792941e-19,0,5.057255e-19,1.480304e-16,0,0,0,0,0,0
3.059125,-0.453242,-10.737532,1.891618e-12,0,0,1.891618e-12,0,0,3.714332e-17,0,0,0,0,3.714332e-17,-3.714332e-17,3.714332e-17,90,4.952442e-17,4.288941e-17,0,0,0,0,0,0
3.106415,-0.453242,-10.705235,1.891618e-12,0,0,1.891618e-12,0,-1.110223e-16,1.66395e-17,0,0,0,0,2.440217e-18,-1.134625e-16,5.795137e-17,53.343067,7.726849e-17,7.646806e-17,0,0,0,0,0,0
3.153705,-0.453242,-10.670549,1.891618e-12,0,0,1.891618e-12,0,-2.220446e-16,2.808781e-17,0,0,0,0,3.497901e-18,-2.255425e-16,1.145202e-16,52.098751,1.526936e-16,1.515411e-16,0,0,0,0,0,0
3.200996,-0.453242,-10.63207,1.891618e-12,0,0,1.891618e-12,0,-2.220446e-16,-1.833101e-18,0,0,0,0,1.513223e-20,-2.220597e-16,1.110374e-16,44.527035,1.480499e-16,1.480449e-16,0,0,0,0,0,0
3.248286,-0.453242,-10.587107,1.891618e-12,0,0,1.891618e-12,-3.330669e-16,0,-1.611125e-17,0,0,0,0,7.775247e-19,-3.338444e-16,1.67311e-16,-42.237064,2.230813e-16,2.228226e-16,0,0,0,0,0,0
3.295577,-0.453242,-10.533141,1.891618e-12,0,0,1.891618e-12,2.220446e-16,2.220446e-16,-3.000278e-17,0,0,0,0,2.520474e-16,1.920418e-16,3.000278e-17,0,4.000371e-17,1.520297e-16,0,0,0,0,0,0
3.342867,-0.453242,-10.46688,1.891618e-12,0,0,1.891618e-12,0,2.220446e-16,-2.844581e-17,0,0,0,0,2.256308e-16,-3.586231e-18,1.146085e-16,-37.814495,1.528114e-16,1.516301e-16,0,0,0,0,0,0
3.390158,-0.453242,-10.417554,1.891618e-12,0,0,1.891618e-12,4.440892e-16,-1.110223e-16,9.764578e-18,0,0,0,0,4.442609e-16,-1.11194e-16,2.777275e-16,46.007435,3.703033e-16,3.393661e-16,0,0,0,0,0,0
1.451249,-0.500533,-10.120095,1.891618e-12,0,0,1.891618e-12,-1.110223e-16,0,-2.801241e-18,0,0,0,0,7.06341e-20,-1.110929e-16,5.558179e-17,-43.555576,7.410905e-17,7.408551e-17,0,0,0,0,0,0
1.49854,-0.500533,-10.236377,1.891618e-12,0,0,1.891618e-12,0,2.220446e-16,6.929183e-18,0,0,0,0,2.222606e-16,-2.160237e-19,1.112383e-16,-46.785671,1.483178e-16,1.482458e-16,0,0,0,0,0,0
1.54583,-0.500533,-10.342267,1.891618e-12,0,0,1.891618e-12,4.440892e-16,-1.110223e-16,4.497089e-17,0,0,0,0,4.477088e-16,-1.146419e-16,2.811753e-16,49.601677,3.749005e-16,3.431308e-16,0,0,0,0,0,0
1.593121,-0.500533,-10.42622,1.891618e-12,0,0,1.891618e-12,2.220446e-16,-1.110223e-16,-7.260014e-18,0,0,0,0,2.222028e-16,-1.111805e-16,1.666916e-16,43.751888,2.222555e-16,1.960043e-16,0,0,0,0,0,0
1.640411,-0.500533,-10.490143,1.891618e-12,0,0,1.891618e-12,0,-2.220446e-16,3.269033e-17,0,0,0,0,4.71278e-18,-2.267574e-16,1.157351e-16,53.203487,1.543134e-16,1.527667e-16,0,0,0,0,0,0
1.687701,-0.500533,-10.545609,1.891618e-12,0,0,1.891618e-12,-2.220446e-16,0,-6.100099e-17,0,0,0,0,1.565474e-17,-2.376993e-16,1.26677e-16,-30.606747,1.689027e-16,1.639338e-16,0,0,0,0,0,0
1.734992,-0.500533,-10.596107,1.891618e-12,0,0,1.891618e-12,4.440892e-16,-2.220446e-16,2.281912e-17,0,0,0,0,4.4487e-16,-2.228254e-16,3.338477e-16,46.959667,4.451303e-16,3.925352e-16,0,0,0,0,0,0
1.782282,-0.500533,-10.640175,1.891618e-12,0,0,1.891618e-12,2.220446e-16,-5.551115e-16,-3.538675e-19,0,0,0,0,2.220448e-16,-5.551117e-16,3.885782e-16,44.973911,5.181043e-16,4.622229e-16,0,0,0,0,0,0
1.829573,-0.500533,-10.678991,1.891618e-12,0,0,1.891618e-12,-2.220446e-16,-1.110223e-16,-2.871981e-17,0,0,0,0,-1.040329e-16,-2.29034e-16,6.250052e-17,-31.322151,8.333403e-17,1.324174e-16,0,0,0,0,0,0
1.876863,-0.500533,-10.713816,1.891618e-12,0,0,1.891618e-12,-2.220446e-16,2.220446e-16,2.438342e-17,0,0,0,0,2.233794e-16,-2.233794e-16,2.233794e-16,-48.133362,2.978392e-16,2.579363e-16,0,0,0,0,0,0
1.924154,-0.500533,-10.744984,1.891618e-12,0,0,1.891618e-12,2.220446e-16,2.220446e-16,-4.515855e-17,0,0,0,0,2.672032e-16,1.76886e-16,4.515855e-17,0,6.02114e-17,1.569454e-16,0,0,0,0,0,0
1.971444,-0.500533,-10.772918,1.891618e-12,0,0,1.891618e-12,2.220446e-16,-1.110223e-16,-2.277959e-17,0,0,0,0,2.235954e-16,-1.125731e-16,1.680842e-16,41.105515,2.241123e-16,1.975836e-16,0,0,0,0,0,0
2.018735,-0.500533,-10.798199,1.891618e-12,0,0,1.891618e-12,-1.110223e-16,0,2.309225e-17,0,0,0,0,4.611555e-18,-1.156339e-16,6.01227e-17,-56.293484,8.016361e-17,7.867149e-17,0,0,0,0,0,0
2.066025,-0.500533,-10.821308,1.891618e-12,0,0,1.891618e-12,2.220446e-16,2.220446e-16,-1.106575e-17,0,0,0,0,2.331103e-16,2.109788e-16,1.106575e-17,0,1.475434e-17,1.485802e-16,0,0,0,0,0,0
2.113316,-0.500533,-10.842749,1.891618e-12,0,0,1.891618e-12,-1.110223e-16,-4.440892e-16,3.390888e-17,0,0,0,0,-1.076052e-16,-4.475064e-16,1.699506e-16,50.754505,2.266008e-16,2.697215e-16,0,0,0,0,0,0
2.160606,-0.500533,-10.862073,1.891618e-12,0,0,1.891618e-12,0,0,1.222367e-17,0,0,0,0,1.222367e-17,-1.222367e-17,1.222367e-17,90,1.629823e-17,1.411468e-17,0,0,0,0,0,0
2.207896,-0.500533,-10.878382,1.891618e-12,0,0,1.891618e-12,-1.110223e-16,0,1.416493e-17,0,0,0,0,1.778754e-18,-1.128011e-16,5.728991e-17,-52.157421,7.638654e-17,7.580058e-17,0,0,0,0,0,0
2.255187,-0.500533,-10.891966,1.891618e-12,0,0,1.891618e-12,-1.110223e-16,2.220446e-16,2.472072e-17,0,0,0,0,2.238694e-16,-1.128471e-16,1.683583e-16,-49.221748,2.244777e-16,1.978945e-16,0,0,0,0,0,0
2.302477,-0.500533,-10.902952,1.891618e-12,0,0,1.891618e-12,0,2.220446e-16,4.80134e-17,0,0,0,0,2.31982e-16,-9.937352e-18,1.209597e-16,-56.693428,1.612795e-16,1.580712e-16,0,0,0,0,0,0
2.349768,-0.500533,-10.910507,1.891618e-12,0,0,1.891618e-12,-1.110223e-16,-2.220446e-16,7.081412e-18,0,0,0,0,-1.105724e-16,-2.224945e-16,5.596101e-17,48.634903,7.461468e-17,1.28458e-16,0,0,0,0,0,0
2.397058,-0.500533,-10.914071,1.891618e-12,0,0,1.891618e-12,2.220446e-16,-2.220446e-16,-1.588834e-17,0,0,0,0,2.226123e-16,-2.226123e-16,2.226123e-16,42.953594,2.968164e-16,2.570506e-16,0,0,0,0,0,0
2.444349,-0.500533,-10.914041,1.891618e-12,0,0,1.891618e-12,2.220446e-16,0,-1.642375e-17,0,0,0,0,2.232528e-16,-1.208225e-18,1.122305e-16,40.792576,1.496407e-16,1.492396e-16,0,0,0,0,0,0
2.491639,-0.500533,-10.91181,1.891618e-12,0,0,1.891618e-12,2.220446e-16,2.220446e-16,-2.448904e-17,0,0,0,0,2.465337e-16,1.975556e-16,2.448904e-17,0,3.265206e-17,1.507064e-16,0,0,0,0,0,0
2.53893,-0.500533,-10.907424,1.891618e-12,0,0,1.891618e-12,2.220446e-16,0,-6.434471e-17,0,0,0,0,2.39343e-16,-1.729836e-17,1.283207e-16,29.952448,1.710942e-16,1.656295e-16,0,0,0,0,0,0
2.58622,-0.500533,-10.901685,1.891618e-12,0,0,1.891618e-12,-1.110223e-16,2.220446e-16,-3.791889e-17,0,0,0,0,2.26307e-16,-1.152847e-16,1.707959e-16,-38.586357,2.277279e-16,2.006602e-16,0,0,0,0,0,0
2.633511,-0.500533,-10.894304,1.891618e-12,0,0,1.891618e-12,2.220446e-16,0,-7.361544e-19,0,0,0,0,2.22047e-16,-2.440579e-21,1.110247e-16,44.810047,1.48033e-16,1.480322e-16,0,0,0,0,0,0
2.680801,-0.500533,-10.885967,1.891618e-12,0,0,1.891618e-12,-1.110223e-16,-1.110223e-16,-2.235171e-17,0,0,0,0,-8.86706e-17,-1.33374e-16,2.235171e-17,0,2.980228e-17,7.838579e-17,0,0,0,0,0,0
2.728091,-0.500533,-10.877043,1.891618e-12,0,0,1.891618e-12,-2.220446e-16,-1.110223e-16,8.622838e-18,0,0,0,0,-1.103566e-16,-2.227103e-16,5.617687e-17,-49.414745,7.49025e-17,1.285836e-16,0,0,0,0,0,0
2.775382,-0.500533,-10.866978,1.891618e-12,0,0,1.891618e-12,0,-1.110223e-16,-2.403317e-17,0,0,0,0,4.979188e-18,-1.160015e-16,6.049034e-17,33.295067,8.065378e-17,7.904635e-17,0,0,0,0,0,0
2.822672,-0.500533,-10.854273,1.891618e-12,0,0,1.891618e-12,0,2.220446e-16,2.378462e-17,0,0,0,0,2.245638e-16,-2.519143e-18,1.135414e-16,-51.045929,1.513886e-16,1.505559e-16,0,0,0,0,0,0
2.869963,-0.500533,-10.838734,1.891618e-12,0,0,1.891618e-12,0,-1.110223e-16,-1.548281e-17,0,0,0,0,2.118747e-18,-1.13141e-16,5.76299e-17,37.207748,7.683986e-17,7.614344e-17,0,0,0,0,0,0
2.917253,-0.500533,-10.819802,1.891618e-12,0,0,1.891618e-12,-1.110223e-16,2.220446e-16,1.921867e-17,0,0,0,0,2.231499e-16,-1.121276e-16,1.676387e-16,-48.291527,2.235183e-16,1.970784e-16,0,0,0,0,0,0
2.964544,-0.500533,-10.79738,1.891618e-12,0,0,1.891618e-12,-1.110223e-16,2.220446e-16,-1.208086e-17,0,0,0,0,2.224822e-16,-1.114599e-16,1.669711e-16,-42.925426,2.226281e-16,1.963212e-16,0,0,0,0,0,0
3.011834,-0.500533,-10.771026,1.891618e-12,0,0,1.891618e-12,-2.220446e-16,-1.110223e-16,8.874434e-18,0,0,0,0,-1.103174e-16,-2.227495e-16,5.621604e-17,-49.541439,7.495473e-17,1.286064e-16,0,0,0,0,0,0
3.059125,-0.500533,-10.741144,1.891618e-12,0,0,1.891618e-12,-4.440892e-16,0,-1.552133e-18,0,0,0,0,5.424785e-21,-4.440946e-16,2.2205e-16,-44.799747,2.960667e-16,2.960649e-16,0,0,0,0,0,0
3.106415,-0.500533,-10.708838,1.891618e-12,0,0,1.891618e-12,2.220446e-16,2.220446e-16,-3.485243e-17,0,0,0,0,2.56897e-16,1.871922e-16,3.485243e-17,0,4.646991e-17,1.534027e-16,0,0,0,0,0,0
3.153705,-0.500533,-10.67425,1.891618e-12,0,0,1.891618e-12,4.440892e-16,-1.110223e-16,2.064771e-17,0,0,0,0,4.448561e-16,-1.117893e-16,2.783227e-16,47.127232,3.710969e-16,3.400157e-16,0,0,0,0,0,0
3.200996,-0.500533,-10.635547,1.891618e-12,0,0,1.891618e-12,0,2.220446e-16,9.545818e-18,0,0,0,0,2.224542e-16,-4.096242e-19,1.114319e-16,-47.457134,1.485759e-16,1.484395e-16,0,0,0,0,0,0
3.248286,-0.500533,-10.589998,1.891618e-12,0,0,1.891618e-12,0,0,-2.452943e-18,0,0,0,0,2.452943e-18,-2.452943e-18,2.452943e-18,0,3.27059e-18,2.832414e-18,0,0,0,0,0,0
3.295577,-0.500533,-10.535261,1.891618e-12,0,0,1.891618e-12,2.220446e-16,0,-1.08672e-18,0,0,0,0,2.220499e-16,-5.318441e-21,1.110276e-16,44.719593,1.480368e-16,1.480351e-16,0,0,0,0,0,0
3.342867,-0.500533,-10.467337,1.891618e-12,0,0,1.891618e-12,0,0,1.1553e-17,0,0,0,0,1.1553e-17,-1.1553e-17,1.1553e-17,90,1.540401e-17,1.334026e-17,0,0,0,0,0,0
3.390158,-0.500533,-10.417207,1.891618e-12,0,0,1.891618e-12,4.440892e-16,-1.110223e-16,2.084167e-17,0,0,0,0,4.448706e-16,-1.118037e-16,2.783372e-16,47.147141,3.711162e-16,3.400315e-16,0,0,0,0,0,0
1.451249,-0.547823,-10.119351,1.891618e-12,0,0,1.891618e-12,-3.330669e-16,2.220446e-16,-1.689141e-17,0,0,0,0,2.225581e-16,-3.335804e-16,2.780693e-16,-43.258701,3.70759e-16,3.232124e-16,0,0,0,0,0,0
1.49854,-0.547823,-10.237685,1.891618e-12,0,0,1.891618e-12,0,-1.110223e-16,-3.317211e-17,0,0,0,0,9.156283e-18,-1.201786e-16,6.466743e-17,29.569244,8.622325e-17,8.333898e-17,0,0,0,0,0,0
1.54583,-0.547823,-10.343595,1.891618e-12,0,0,1.891618e-12,2.220446e-16,0,1.822632e-17,0,0,0,0,2.235308e-16,-1.486143e-18,1.125084e-16,49.661488,1.500113e-16,1.495183e-16,0,0,0,0,0,0
1.593121,-0.547823,-10.427331,1.891618e-12,0,0,1.891618e-12,-1.110223e-16,2.220446e-16,5.987485e-17,0,0,0,0,2.324812e-16,-1.214589e-16,1.7697e-16,-54.88768,2.3596e-16,2.076714e-16,0,0,0,0,0,0
1.640411,-0.547823,-10.493772,1.891618e-12,0,0,1.891618e-12,2.220446e-16,0,5.86168e-17,0,0,0,0,2.365686e-16,-1.452403e-17,1.255463e-16,58.916428,1.673951e-16,1.627699e-16,0,0,0,0,0,0
1.687701,-0.547823,-10.550471,1.891618e-12,0,0,1.891618e-12,-2.220446e-16,0,4.200931e-18,0,0,0,0,7.945031e-20,-2.221241e-16,1.111018e-16,-46.083481,1.481357e-16,1.481092e-16,0,0,0,0,0,0
1.734992,-0.547823,-10.601232,1.891618e-12,0,0,1.891618e-12,0,-1.110223e-16,5.081061e-17,0,0,0,0,1.974313e-17,-1.307654e-16,7.525428e-17,66.234291,1.00339e-16,9.444836e-17,0,0,0,0,0,0
1.782282,-0.547823,-10.645303,1.891618e-12,0,0,1.891618e-12,0,2.220446e-16,3.594044e-17,0,0,0,0,2.277171e-16,-5.672456e-18,1.166948e-16,-53.968971,1.55593e-16,1.537371e-16,0,0,0,0,0,0
1.829573,-0.547823,-10.68392,1.891618e-12,0,0,1.891618e-12,2.220446e-16,0,4.799039e-18,0,0,0,0,2.221483e-16,-1.03673e-19,1.11126e-16,46.23756,1.48168e-16,1.481334e-16,0,0,0,0,0,0
1.876863,-0.547823,-10.718682,1.891618e-12,0,0,1.891618e-12,-2.220446e-16,0,1.684739e-17,0,0,0,0,1.271001e-18,-2.233156e-16,1.122933e-16,-49.314339,1.497244e-16,1.493025e-16,0,0,0,0,0,0
1.924154,-0.547823,-10.749304,1.891618e-12,0,0,1.891618e-12,2.220446e-16,-1.110223e-16,-3.939185e-17,0,0,0,0,2.266401e-16,-1.156178e-16,1.711289e-16,38.345924,2.281719e-16,2.010382e-16,0,0,0,0,0,0
1.971444,-0.547823,-10.775522,1.891618e-12,0,0,1.891618e-12,-2.220446e-16,0,1.377124e-17,0,0,0,0,8.508347e-19,-2.228954e-16,1.118731e-16,-48.535435,1.491642e-16,1.488814e-16,0,0,0,0,0,0
2.018735,-0.547823,-10.797836,1.891618e-12,0,0,1.891618e-12,0,0,-2.262054e-17,0,0,0,0,2.262054e-17,-2.262054e-17,2.262054e-17,0,3.016073e-17,2.611995e-17,0,0,0,0,0,0
2.066025,-0.547823,-10.817886,1.891618e-12,0,0,1.891618e-12,0,2.220446e-16,2.269045e-17,0,0,0,0,2.243396e-16,-2.294988e-18,1.133173e-16,-50.775444,1.510897e-16,1.503306e-16,0,0,0,0,0,0
2.113316,-0.547823,-10.837424,1.891618e-12,0,0,1.891618e-12,-2.220446e-16,-2.220446e-16,-3.523975e-17,0,0,0,0,-1.868048e-16,-2.572844e-16,3.523975e-17,0,4.698634e-17,1.535206e-16,0,0,0,0,0,0
2.160606,-0.547823,-10.85687,1.891618e-12,0,0,1.891618e-12,0,2.220446e-16,8.128001e-18,0,0,0,0,2.223417e-16,-2.9713e-19,1.113194e-16,-47.093594,1.484259e-16,1.48327e-16,0,0,0,0,0,0
2.207896,-0.547823,-10.874921,1.891618e-12,0,0,1.891618e-12,-1.110223e-16,-2.220446e-16,2.150719e-17,0,0,0,0,-1.070015e-16,-2.260654e-16,5.95319e-17,55.589157,7.937587e-17,1.305808e-16,0,0,0,0,0,0
2.255187,-0.547823,-10.890845,1.891618e-12,0,0,1.891618e-12,4.440892e-16,2.220446e-16,-3.655193e-17,0,0,0,0,4.499514e-16,2.161824e-16,1.168845e-16,35.888439,1.558461e-16,2.598457e-16,0,0,0,0,0,0
2.302477,-0.547823,-10.904059,1.891618e-12,0,0,1.891618e-12,-1.110223e-16,0,-1.197776e-17,0,0,0,0,1.277533e-18,-1.122998e-16,5.678868e-17,-38.911919,7.571825e-17,7.529601e-17,0,0,0,0,0,0
2.349768,-0.547823,-10.913334,1.891618e-12,0,0,1.891618e-12,2.220446e-16,-1.110223e-16,2.691293e-17,0,0,0,0,2.242053e-16,-1.131829e-16,1.686941e-16,49.590008,2.249255e-16,1.982754e-16,0,0,0,0,0,0
2.397058,-0.547823,-10.917978,1.891618e-12,0,0,1.891618e-12,2.220446e-16,4.440892e-16,1.043582e-17,0,0,0,0,4.445786e-16,2.215552e-16,1.115117e-16,-47.68494,1.486823e-16,2.56678e-16,0,0,0,0,0,0
2.444349,-0.547823,-10.91848,1.891618e-12,0,0,1.891618e-12,2.220446e-16,0,-5.669643e-17,0,0,0,0,2.356836e-16,-1.363899e-17,1.246613e-16,31.473843,1.66215e-16,1.618604e-16,0,0,0,0,0,0
2.491639,-0.547823,-10.916307,1.891618e-12,0,0,1.891618e-12,2.220446e-16,2.220446e-16,9.164036e-18,0,0,0,0,2.312086e-16,2.128806e-16,9.164036e-18,90,1.221871e-17,1.484075e-16,0,0,0,0,0,0
2.53893,-0.547823,-10.912232,1.891618e-12,0,0,1.891618e-12,0,0,-1.712166e-17,0,0,0,0,1.712166e-17,-1.712166e-17,1.712166e-17,0,2.282888e-17,1.977039e-17,0,0,0,0,0,0
2.58622,-0.547823,-10.907331,1.891618e-12,0,0,1.891618e-12,-4.440892e-16,2.220446e-16,4.040048e-17,0,0,0,0,2.244859e-16,-4.465305e-16,3.355082e-16,-48.45805,4.473443e-16,3.944184e-16,0,0,0,0,0,0
2.633511,-0.547823,-10.90059,1.891618e-12,0,0,1.891618e-12,2.220446e-16,4.440892e-16,3.441947e-17,0,0,0,0,4.493022e-16,2.168316e-16,1.162353e-16,-53.61232,1.549804e-16,2.594572e-16,0,0,0,0,0,0
2.680801,-0.547823,-10.892337,1.891618e-12,0,0,1.891618e-12,2.220446e-16,-1.110223e-16,-9.125142e-18,0,0,0,0,2.222944e-16,-1.112721e-16,1.667833e-16,43.431816,2.223777e-16,1.961082e-16,0,0,0,0,0,0
2.728091,-0.547823,-10.882885,1.891618e-12,0,0,1.891618e-12,2.220446e-16,2.220446e-16,1.052931e-17,0,0,0,0,2.325739e-16,2.115153e-16,1.052931e-17,90,1.403908e-17,1.485282e-16,0,0,0,0,0,0
2.775382,-0.547823,-10.871966,1.891618e-12,0,0,1.891618e-12,-1.110223e-16,-1.110223e-16,-6.560706e-17,0,0,0,0,-4.541525e-17,-1.766294e-16,6.560706e-17,0,8.747607e-17,1.059115e-16,0,0,0,0,0,0
2.822672,-0.547823,-10.858498,1.891618e-12,0,0,1.891618e-12,0,0,-1.328729e-17,0,0,0,0,1.328729e-17,-1.328729e-17,1.328729e-17,0,1.771638e-17,1.534284e-17,0,0,0,0,0,0
2.869963,-0.547823,-10.842347,1.891618e-12,0,0,1.891618e-12,2.220446e-16,-1.110223e-16,4.459692e-17,0,0,0,0,2.279126e-16,-1.168903e-16,1.724015e-16,52.495895,2.298687e-16,2.024827e-16,0,0,0,0,0,0
2.917253,-0.547823,-10.822644,1.891618e-12,0,0,1.891618e-12,2.220446e-16,2.220446e-16,1.088225e-17,0,0,0,0,2.329269e-16,2.111624e-16,1.088225e-17,90,1.450966e-17,1.485621e-16,0,0,0,0,0,0
2.964544,-0.547823,-10.799394,1.891618e-12,0,0,1.891618e-12,4.440892e-16,2.220446e-16,-2.616013e-17,0,0,0,0,4.471296e-16,2.190042e-16,1.140627e-16,38.370636,1.520836e-16,2.581683e-16,0,0,0,0,0,0
3.011834,-0.547823,-10.772428,1.891618e-12,0,0,1.891618e-12,-1.110223e-16,0,-1.021796e-17,0,0,0,0,9.325792e-19,-1.119549e-16,5.644373e-17,-39.785141,7.525831e-17,7.494938e-17,0,0,0,0,0,0
3.059125,-0.547823,-10.742384,1.891618e-12,0,0,1.891618e-12,-2.220446e-16,2.220446e-16,2.046363e-17,0,0,0,0,2.229856e-16,-2.229856e-16,2.229856e-16,-47.632751,2.973141e-16,2.574816e-16,0,0,0,0,0,0
3.106415,-0.547823,-10.710384,1.891618e-12,0,0,1.891618e-12,-2.220446e-16,-1.110223e-16,7.19754e-18,0,0,0,0,-1.105576e-16,-2.225093e-16,5.597582e-17,-48.693859,7.463443e-17,1.284666e-16,0,0,0,0,0,0
3.153705,-0.547823,-10.676346,1.891618e-12,0,0,1.891618e-12,-2.220446e-16,-2.220446e-16,-2.667476e-17,0,0,0,0,-1.953698e-16,-2.487194e-16,2.667476e-17,0,3.556635e-17,1.512003e-16,0,0,0,0,0,0
3.200996,-0.547823,-10.637703,1.891618e-12,0,0,1.891618e-12,-4.440892e-16,0,5.21486e-17,0,0,0,0,6.041525e-18,-4.501307e-16,2.280861e-16,-51.608376,3.041148e-16,3.021211e-16,0,0,0,0,0,0
3.248286,-0.547823,-10.591587,1.891618e-12,0,0,1.891618e-12,-2.220446e-16,2.220446e-16,-8.951471e-18,0,0,0,0,2.22225e-16,-2.22225e-16,2.22225e-16,-43.845718,2.963e-16,2.566033e-16,0,0,0,0,0,0
3.295577,-0.547823,-10.536372,1.891618e-12,0,0,1.891618e-12,-1.110223e-16,-1.110223e-16,1.047009e-17,0,0,0,0,-1.005522e-16,-1.214924e-16,1.047009e-17,90,1.396012e-17,7.499576e-17,0,0,0,0,0,0
3.342867,-0.547823,-10.467329,1.891618e-12,0,0,1.891618e-12,0,0,1.049304e-17,0,0,0,0,1.049304e-17,-1.049304e-17,1.049304e-17,90,1.399072e-17,1.211632e-17,0,0,0,0,0,0
3.390158,-0.547823,-10.416875,1.891618e-12,0,0,1.891618e-12,2.220446e-16,0,3.383191e-17,0,0,0,0,2.27085e-16,-5.040394e-18,1.160627e-16,53.473797,1.547503e-16,1.530978e-16,0,0,0,0,0,0
1.451249,-0.595114,-10.112842,1.891618e-12,0,0,1.891618e-12,-2.220446e-16,2.220446e-16,-3.770413e-17,0,0,0,0,2.25223e-16,-2.25223e-16,2.25223e-16,-40.181427,3.002973e-16,2.600651e-16,0,0,0,0,0,0
1.49854,-0.595114,-10.237324,1.891618e-12,0,0,1.891618e-12,-2.220446e-16,0,-3.53524e-17,0,0,0,0,5.492691e-18,-2.275373e-16,1.16515e-16,-36.168583,1.553533e-16,1.535552e-16,0,0,0,0,0,0
1.54583,-0.595114,-10.345711,1.891618e-12,0,0,1.891618e-12,0,0,3.606641e-17,0,0,0,0,3.606641e-17,-3.606641e-17,3.606641e-17,90,4.808855e-17,4.16459e-17,0,0,0,0,0,0
1.593121,-0.595114,-10.430415,1.891618e-12,0,0,1.891618e-12,2.220446e-16,2.220446e-16,-1.60042e-17,0,0,0,0,2.380488e-16,2.060404e-16,1.60042e-17,0,2.133893e-17,1.491788e-16,0,0,0,0,0,0
1.640411,-0.595114,-10.497175,1.891618e-12,0,0,1.891618e-12,2.220446e-16,2.220446e-16,-3.352504e-17,0,0,0,0,2.555696e-16,1.885196e-16,3.352504e-17,0,4.470005e-17,1.530078e-16,0,0,0,0,0,0
1.687701,-0.595114,-10.554662,1.891618e-12,0,0,1.891618e-12,0,-1.110223e-16,-3.204355e-17,0,0,0,0,8.584691e-18,-1.19607e-16,6.409584e-17,30.002256,8.546112e-17,8.274813e-17,0,0,0,0,0,0
1.734992,-0.595114,-10.605713,1.891618e-12,0,0,1.891618e-12,-3.330669e-16,0,-3.201774e-17,0,0,0,0,3.049938e-18,-3.361168e-16,1.695834e-16,-39.558552,2.261112e-16,2.251014e-16,0,0,0,0,0,0
1.782282,-0.595114,-10.649978,1.891618e-12,0,0,1.891618e-12,0,-2.220446e-16,2.767852e-17,0,0,0,0,3.398202e-18,-2.254428e-16,1.144205e-16,51.999405,1.525607e-16,1.514407e-16,0,0,0,0,0,0
1.829573,-0.595114,-10.688471,1.891618e-12,0,0,1.891618e-12,0,2.220446e-16,1.138225e-17,0,0,0,0,2.226265e-16,-5.819414e-19,1.116042e-16,-47.926819,1.488057e-16,1.486121e-16,0,0,0,0,0,0
1.876863,-0.595114,-10.722896,1.891618e-12,0,0,1.891618e-12,4.440892e-16,0,-2.960182e-17,0,0,0,0,4.460537e-16,-1.964489e-18,2.240091e-16,41.203201,2.986788e-16,2.980261e-16,0,0,0,0,0,0
1.924154,-0.595114,-10.752778,1.891618e-12,0,0,1.891618e-12,-1.110223e-16,0,-2.605499e-17,0,0,0,0,5.810547e-18,-1.168329e-16,6.13217e-17,-32.428139,8.176226e-17,7.989588e-17,0,0,0,0,0,0
1.971444,-0.595114,-10.777412,1.891618e-12,0,0,1.891618e-12,2.220446e-16,-1.110223e-16,4.907725e-17,0,0,0,0,2.291256e-16,-1.181033e-16,1.736144e-16,53.210098,2.314859e-16,2.038599e-16,0,0,0,0,0,0
2.018735,-0.595114,-10.79717,1.891618e-12,0,0,1.891618e-12,-1.110223e-16,-2.220446e-16,-3.082591e-17,0,0,0,0,-1.030376e-16,-2.300293e-16,6.349587e-17,30.478069,8.466115e-17,1.330473e-16,0,0,0,0,0,0
2.066025,-0.595114,-10.814587,1.891618e-12,0,0,1.891618e-12,-1.110223e-16,0,5.379923e-17,0,0,0,0,2.179244e-17,-1.328147e-16,7.73036e-17,-67.051384,1.030715e-16,9.662994e-17,0,0,0,0,0,0
2.113316,-0.595114,-10.832427,1.891618e-12,0,0,1.891618e-12,0,0,-1.941136e-17,0,0,0,0,1.941136e-17,-1.941136e-17,1.941136e-17,0,2.588182e-17,2.241431e-17,0,0,0,0,0,0
2.160606,-0.595114,-10.852119,1.891618e-12,0,0,1.891618e-12,0,-1.110223e-16,-4.764111e-18,0,0,0,0,2.040591e-19,-1.112264e-16,5.571521e-17,42.547375,7.428695e-17,7.421902e-17,0,0,0,0,0,0
2.207896,-0.595114,-10.87172,1.891618e-12,0,0,1.891618e-12,0,0,-1.265775e-17,0,0,0,0,1.265775e-17,-1.265775e-17,1.265775e-17,0,1.6877e-17,1.461591e-17,0,0,0,0,0,0
2.255187,-0.595114,-10.889406,1.891618e-12,0,0,1.891618e-12,2.220446e-16,-1.110223e-16,9.511557e-18,0,0,0,0,2.22316e-16,-1.112937e-16,1.668049e-16,46.634449,2.224065e-16,1.961327e-16,0,0,0,0,0,0
2.302477,-0.595114,-10.904085,1.891618e-12,0,0,1.891618e-12,-1.110223e-16,0,-1.061287e-17,0,0,0,0,1.005403e-18,-1.120277e-16,5.651655e-17,-39.588272,7.535541e-17,7.502252e-17,0,0,0,0,0,0
2.349768,-0.595114,-10.914399,1.891618e-12,0,0,1.891618e-12,0,-1.110223e-16,3.786301e-17,0,0,0,0,1.168331e-17,-1.227056e-16,6.719446e-17,62.148544,8.959261e-17,8.596324e-17,0,0,0,0,0,0
2.397058,-0.595114,-10.919739,1.891618e-12,0,0,1.891618e-12,0,0,1.571976e-17,0,0,0,0,1.571976e-17,-1.571976e-17,1.571976e-17,90,2.095968e-17,1.815162e-17,0,0,0,0,0,0
2.444349,-0.595114,-10.920767,1.891618e-12,0,0,1.891618e-12,-1.110223e-16,2.220446e-16,-2.274152e-17,0,0,0,0,2.235902e-16,-1.125679e-16,1.680791e-16,-41.111942,2.241054e-16,1.975778e-16,0,0,0,0,0,0
2.491639,-0.595114,-10.918674,1.891618e-12,0,0,1.891618e-12,2.220446e-16,0,-2.921121e-17,0,0,0,0,2.258232e-16,-3.778597e-18,1.148009e-16,37.629471,1.530679e-16,1.51824e-16,0,0,0,0,0,0
2.53893,-0.595114,-10.915082,1.891618e-12,0,0,1.891618e-12,-1.110223e-16,0,-3.231443e-17,0,0,0,0,8.720538e-18,-1.197428e-16,6.423169e-17,-29.897625,8.564225e-17,8.288846e-17,0,0,0,0,0,0
2.58622,-0.595114,-10.911501,1.891618e-12,0,0,1.891618e-12,2.220446e-16,2.220446e-16,-1.509767e-17,0,0,0,0,2.371423e-16,2.069469e-16,1.509767e-17,0,2.013022e-17,1.490527e-16,0,0,0,0,0,0
2.633511,-0.595114,-10.906171,1.891618e-12,0,0,1.891618e-12,2.220446e-16,2.220446e-16,-2.65657e-17,0,0,0,0,2.486103e-16,1.954789e-16,2.65657e-17,0,3.542094e-17,1.511747e-16,0,0,0,0,0,0
2.680801,-0.595114,-10.898584,1.891618e-12,0,0,1.891618e-12,2.220446e-16,-1.110223e-16,2.135373e-17,0,0,0,0,2.234081e-16,-1.123858e-16,1.678969e-16,48.653435,2.238625e-16,1.973712e-16,0,0,0,0,0,0
2.728091,-0.595114,-10.888587,1.891618e-12,0,0,1.891618e-12,-2.220446e-16,-1.110223e-16,4.648832e-17,0,0,0,0,-9.41273e-17,-2.389396e-16,7.240616e-17,-64.972397,9.654155e-17,1.389826e-16,0,0,0,0,0,0
2.775382,-0.595114,-10.876263,1.891618e-12,0,0,1.891618e-12,-1.110223e-16,-1.110223e-16,4.431494e-17,0,0,0,0,-6.670736e-17,-1.553372e-16,4.431494e-17,90,5.908659e-17,8.998122e-17,0,0,0,0,0,0
2.822672,-0.595114,-10.861606,1.891618e-12,0,0,1.891618e-12,4.440892e-16,-1.110223e-16,-4.175427e-18,0,0,0,0,4.441206e-16,-1.110537e-16,2.775871e-16,44.569065,3.701162e-16,3.39213e-16,0,0,0,0,0,0
2.869963,-0.595114,-10.844624,1.891618e-12,0,0,1.891618e-12,-1.110223e-16,2.220446e-16,-1.933515e-17,0,0,0,0,2.231633e-16,-1.12141e-16,1.676521e-16,-41.688702,2.235362e-16,1.970936e-16,0,0,0,0,0,0
2.917253,-0.595114,-10.824155,1.891618e-12,0,0,1.891618e-12,0,2.220446e-16,2.57059e-17,0,0,0,0,2.249817e-16,-2.937097e-18,1.139594e-16,-51.518219,1.519459e-16,1.509764e-16,0,0,0,0,0,0
2.964544,-0.595114,-10.800081,1.891618e-12,0,0,1.891618e-12,2.220446e-16,2.220446e-16,1.023074e-17,0,0,0,0,2.322753e-16,2.118139e-16,1.023074e-17,90,1.364099e-17,1.485004e-16,0,0,0,0,0,0
3.011834,-0.595114,-10.772433,1.891618e-12,0,0,1.891618e-12,0,2.220446e-16,3.202193e-17,0,0,0,0,2.265704e-16,-4.525765e-18,1.155481e-16,-53.044521,1.540641e-16,1.525779e-16,0,0,0,0,0,0
3.059125,-0.595114,-10.742385,1.891618e-12,0,0,1.891618e-12,-1.110223e-16,-2.220446e-16,2.982132e-17,0,0,0,0,-1.035192e-16,-2.295477e-16,6.301427e-17,59.122639,8.401904e-17,1.327417e-16,0,0,0,0,0,0
3.106415,-0.595114,-10.711205,1.891618e-12,0,0,1.891618e-12,0,2.220446e-16,2.289508e-17,0,0,0,0,2.243807e-16,-2.336138e-18,1.133584e-16,-50.826111,1.511446e-16,1.503719e-16,0,0,0,0,0,0
3.153705,-0.595114,-10.678283,1.891618e-12,0,0,1.891618e-12,-2.220446e-16,-1.110223e-16,1.303093e-17,0,0,0,0,-1.095133e-16,-2.235536e-16,5.702011e-17,-51.605335,7.602681e-17,1.290775e-16,0,0,0,0,0,0
3.200996,-0.595114,-10.640253,1.891618e-12,0,0,1.891618e-12,-4.440892e-16,0,1.25344e-17,0,0,0,0,3.535017e-19,-4.444427e-16,2.223981e-16,-46.615456,2.965308e-16,2.96413e-16,0,0,0,0,0,0
3.248286,-0.595114,-10.593871,1.891618e-12,0,0,1.891618e-12,-2.220446e-16,2.220446e-16,-1.432674e-17,0,0,0,0,2.225063e-16,-2.225063e-16,2.225063e-16,-43.15414,2.966751e-16,2.569282e-16,0,0,0,0,0,0
3.295577,-0.595114,-10.538256,1.891618e-12,0,0,1.891618e-12,-1.110223e-16,2.220446e-16,-2.609696e-18,0,0,0,0,2.22065e-16,-1.110428e-16,1.665539e-16,-44.551105,2.220719e-16,1.958481e-16,0,0,0,0,0,0
3.342867,-0.595114,-10.468295,1.891618e-12,0,0,1.891618e-12,2.220446e-16,-1.110223e-16,8.294715e-18,0,0,0,0,2.22251e-16,-1.112287e-16,1.667399e-16,46.42572,2.223199e-16,1.96059e-16,0,0,0,0,0,0
3.390158,-0.595114,-10.417799,1.891618e-12,0,0,1.891618e-12,2.220446e-16,0,1.181759e-17,0,0,0,0,2.226718e-16,-6.271802e-19,1.116495e-16,48.037937,1.48866e-16,1.486574e-16,0,0,0,0,0,0
1.451249,-0.642404,-10.133199,1.891618e-12,0,0,1.891618e-12,-1.110223e-16,2.220446e-16,-9.037929e-17,0,0,0,0,2.449889e-16,-1.339666e-16,1.894777e-16,-30.755447,2.52637e-16,2.218978e-16,0,0,0,0,0,0
1.49854,-0.642404,-10.241895,1.891618e-12,0,0,1.891618e-12,-2.220446e-16,-1.110223e-16,-1.053211e-16,0,0,0,0,-4.747879e-17,-2.855881e-16,1.190547e-16,-13.896096,1.587395e-16,1.767049e-16,0,0,0,0,0,0
1.54583,-0.642404,-10.34863,1.891618e-12,0,0,1.891618e-12,0,-1.110223e-16,1.579033e-17,0,0,0,0,2.202127e-18,-1.132244e-16,5.771328e-17,52.939289,7.695104e-17,7.62276e-17,0,0,0,0,0,0
1.593121,-0.642404,-10.434375,1.891618e-12,0,0,1.891618e-12,-1.110223e-16,2.220446e-16,1.717688e-17,0,0,0,0,2.229281e-16,-1.119058e-16,1.674169e-16,-47.944439,2.232226e-16,1.968268e-16,0,0,0,0,0,0
1.640411,-0.642404,-10.50048,1.891618e-12,0,0,1.891618e-12,2.220446e-16,-1.110223e-16,-2.099259e-17,0,0,0,0,2.233625e-16,-1.123402e-16,1.678514e-16,41.4077,2.238018e-16,1.973195e-16,0,0,0,0,0,0
1.687701,-0.642404,-10.557792,1.891618e-12,0,0,1.891618e-12,4.440892e-16,-2.220446e-16,3.387795e-17,0,0,0,0,4.458077e-16,-2.237631e-16,3.347854e-16,47.903938,4.463805e-16,3.935987e-16,0,0,0,0,0,0
1.734992,-0.642404,-10.608958,1.891618e-12,0,0,1.891618e-12,0,0,-6.950186e-18,0,0,0,0,6.950186e-18,-6.950186e-18,6.950186e-18,0,9.266914e-18,8.025383e-18,0,0,0,0,0,0
1.782282,-0.642404,-10.653611,1.891618e-12,0,0,1.891618e-12,2.220446e-16,-2.220446e-16,-3.00605e-17,0,0,0,0,2.240702e-16,-2.240702e-16,2.240702e-16,41.145073,2.987602e-16,2.587339e-16,0,0,0,0,0,0
1.829573,-0.642404,-10.692262,1.891618e-12,0,0,1.891618e-12,2.220446e-16,-1.110223e-16,-1.384372e-17,0,0,0,0,2.22619e-16,-1.115967e-16,1.671079e-16,42.624001,2.228105e-16,1.964763e-16,0,0,0,0,0,0
1.876863,-0.642404,-10.726461,1.891618e-12,0,0,1.891618e-12,2.220446e-16,2.220446e-16,4.000416e-17,0,0,0,0,2.620488e-16,1.820404e-16,4.000416e-17,90,5.333888e-17,1.550696e-16,0,0,0,0,0,0
1.924154,-0.642404,-10.75576,1.891618e-12,0,0,1.891618e-12,0,-1.110223e-16,-2.520408e-17,0,0,0,0,5.453866e-18,-1.164762e-16,6.096502e-17,32.790115,8.128669e-17,7.953109e-17,0,0,0,0,0,0
1.971444,-0.642404,-10.779444,1.891618e-12,0,0,1.891618e-12,0,2.220446e-16,-4.32154e-17,0,0,0,0,2.301589e-16,-8.114267e-18,1.191366e-16,-34.365768,1.588488e-16,1.562143e-16,0,0,0,0,0,0
2.018735,-0.642404,-10.797885,1.891618e-12,0,0,1.891618e-12,-1.110223e-16,2.220446e-16,3.097515e-17,0,0,0,0,2.249008e-16,-1.138785e-16,1.693896e-16,-50.268291,2.258529e-16,1.990645e-16,0,0,0,0,0,0
2.066025,-0.642404,-10.813955,1.891618e-12,0,0,1.891618e-12,-1.110223e-16,0,-1.760202e-17,0,0,0,0,2.723881e-18,-1.137462e-16,5.823503e-17,-36.203358,7.764671e-17,7.675486e-17,0,0,0,0,0,0
2.113316,-0.642404,-10.830922,1.891618e-12,0,0,1.891618e-12,-2.220446e-16,-1.110223e-16,-1.637321e-17,0,0,0,0,-1.08658e-16,-2.244089e-16,5.787547e-17,-36.783195,7.716729e-17,1.295841e-16,0,0,0,0,0,0
2.160606,-0.642404,-10.850524,1.891618e-12,0,0,1.891618e-12,0,-1.110223e-16,2.912883e-17,0,0,0,0,7.178375e-18,-1.182007e-16,6.268952e-17,58.843861,8.358604e-17,8.129895e-17,0,0,0,0,0,0
2.207896,-0.642404,-10.870351,1.891618e-12,0,0,1.891618e-12,2.220446e-16,0,-1.516409e-18,0,0,0,0,2.22055e-16,-1.035553e-20,1.110327e-16,44.608734,1.480435e-16,1.480401e-16,0,0,0,0,0,0
2.255187,-0.642404,-10.888485,1.891618e-12,0,0,1.891618e-12,-2.220446e-16,0,1.191407e-17,0,0,0,0,6.374334e-19,-2.226821e-16,1.116597e-16,-48.062553,1.488796e-16,1.486676e-16,0,0,0,0,0,0
2.302477,-0.642404,-10.903253,1.891618e-12,0,0,1.891618e-12,0,2.220446e-16,1.604562e-17,0,0,0,0,2.231981e-16,-1.153513e-18,1.121758e-16,-49.111897,1.495678e-16,1.491847e-16,0,0,0,0,0,0
2.349768,-0.642404,-10.913537,1.891618e-12,0,0,1.891618e-12,2.220446e-16,0,-1.448026e-17,0,0,0,0,2.229849e-16,-9.403231e-19,1.119626e-16,41.284527,1.492835e-16,1.48971e-16,0,0,0,0,0,0
2.397058,-0.642404,-10.918924,1.891618e-12,0,0,1.891618e-12,0,2.220446e-16,1.638735e-17,0,0,0,0,2.232475e-16,-1.202904e-18,1.122252e-16,-49.198235,1.496336e-16,1.492343e-16,0,0,0,0,0,0
2.444349,-0.642404,-10.919875,1.891618e-12,0,0,1.891618e-12,0,-1.110223e-16,7.465137e-18,0,0,0,0,4.997065e-19,-1.11522e-16,5.601086e-17,48.82959,7.468114e-17,7.451514e-17,0,0,0,0,0,0
2.491639,-0.642404,-10.917961,1.891618e-12,0,0,1.891618e-12,0,-2.220446e-16,-1.549504e-18,0,0,0,0,1.081245e-20,-2.220554e-16,1.110331e-16,44.600197,1.480442e-16,1.480406e-16,0,0,0,0,0,0
2.53893,-0.642404,-10.915414,1.891618e-12,0,0,1.891618e-12,-1.110223e-16,-1.110223e-16,-1.854286e-17,0,0,0,0,-9.247945e-17,-1.295652e-16,1.854286e-17,0,2.472381e-17,7.704966e-17,0,0,0,0,0,0
2.58622,-0.642404,-10.913381,1.891618e-12,0,0,1.891618e-12,0,2.220446e-16,-3.247534e-17,0,0,0,0,2.266969e-16,-4.652238e-18,1.156745e-16,-36.847588,1.542327e-16,1.527056e-16,0,0,0,0,0,0
2.633511,-0.642404,-10.909971,1.891618e-12,0,0,1.891618e-12,-1.110223e-16,-1.110223e-16,2.495771e-17,0,0,0,0,-8.60646e-17,-1.3598e-16,2.495771e-17,90,3.327694e-17,7.942743e-17,0,0,0,0,0,0
2.680801,-0.642404,-10.90349,1.891618e-12,0,0,1.891618e-12,2.220446e-16,0,-1.826523e-17,0,0,0,0,2.235371e-16,-1.492453e-18,1.125148e-16,40.328735,1.500197e-16,1.495247e-16,0,0,0,0,0,0
2.728091,-0.642404,-10.893138,1.891618e-12,0,0,1.891618e-12,-1.110223e-16,-1.110223e-16,1.70565e-17,0,0,0,0,-9.396581e-17,-1.280788e-16,1.70565e-17,90,2.2742e-17,7.659047e-17,0,0,0,0,0,0
2.775382,-0.642404,-10.879488,1.891618e-12,0,0,1.891618e-12,0,-2.220446e-16,1.066952e-17,0,0,0,0,5.115053e-19,-2.225561e-16,1.115338e-16,47.744705,1.487117e-16,1.485415e-16,0,0,0,0,0,0
2.822672,-0.642404,-10.863489,1.891618e-12,0,0,1.891618e-12,2.220446e-16,2.220446e-16,1.517755e-17,0,0,0,0,2.372222e-16,2.068671e-16,1.517755e-17,90,2.023674e-17,1.490636e-16,0,0,0,0,0,0
2.869963,-0.642404,-10.845564,1.891618e-12,0,0,1.891618e-12,0,0,3.402147e-17,0,0,0,0,3.402147e-17,-3.402147e-17,3.402147e-17,90,4.536196e-17,3.92846e-17,0,0,0,0,0,0
2.917253,-0.642404,-10.824611,1.891618e-12,0,0,1.891618e-12,0,2.220446e-16,1.023638e-17,0,0,0,0,2.225155e-16,-4.709037e-19,1.114932e-16,-47.633919,1.486576e-16,1.485009e-16,0,0,0,0,0,0
2.964544,-0.642404,-10.800148,1.891618e-12,0,0,1.891618e-12,2.220446e-16,-1.110223e-16,-3.917766e-17,0,0,0,0,2.265909e-16,-1.155686e-16,1.710797e-16,38.380829,2.281063e-16,2.009824e-16,0,0,0,0,0,0
3.011834,-0.642404,-10.772236,1.891618e-12,0,0,1.891618e-12,0,0,-2.863543e-17,0,0,0,0,2.863543e-17,-2.863543e-17,2.863543e-17,0,3.818057e-17,3.306534e-17,0,0,0,0,0,0
3.059125,-0.642404,-10.742407,1.891618e-12,0,0,1.891618e-12,0,0,9.853238e-20,0,0,0,0,9.853238e-20,-9.853238e-20,9.853238e-20,90,1.313765e-19,1.137754e-19,0,0,0,0,0,0
3.106415,-0.642404,-10.712159,1.891618e-12,0,0,1.891618e-12,-4.440892e-16,2.220446e-16,1.843466e-17,0,0,0,0,2.225544e-16,-4.44599e-16,3.335767e-16,-46.583992,4.447689e-16,3.922279e-16,0,0,0,0,0,0
3.153705,-0.642404,-10.680589,1.891618e-12,0,0,1.891618e-12,2.220446e-16,2.220446e-16,3.237082e-17,0,0,0,0,2.544154e-16,1.896738e-16,3.237082e-17,90,4.316109e-17,1.52676e-16,0,0,0,0,0,0
3.200996,-0.642404,-10.644036,1.891618e-12,0,0,1.891618e-12,-2.220446e-16,-1.110223e-16,-8.782249e-18,0,0,0,0,-1.103319e-16,-2.22735e-16,5.620156e-17,-40.504959,7.493542e-17,1.28598e-16,0,0,0,0,0,0
3.248286,-0.642404,-10.598636,1.891618e-12,0,0,1.891618e-12,2.220446e-16,0,1.520094e-17,0,0,0,0,2.230804e-16,-1.035809e-18,1.120581e-16,48.89817,1.494108e-16,1.490667e-16,0,0,0,0,0,0
3.295577,-0.642404,-10.542935,1.891618e-12,0,0,1.891618e-12,-1.110223e-16,0,2.791481e-17,0,0,0,0,6.623579e-18,-1.176459e-16,6.213473e-17,-58.348194,8.284631e-17,8.072908e-17,0,0,0,0,0,0
3.342867,-0.642404,-10.471364,1.891618e-12,0,0,1.891618e-12,2.220446e-16,4.440892e-16,2.180687e-17,0,0,0,0,4.462106e-16,2.199232e-16,1.131437e-16,-50.556252,1.508582e-16,2.576285e-16,0,0,0,0,0,0
3.390158,-0.642404,-10.419936,1.891618e-12,0,0,1.891618e-12,-2.220446e-16,2.220446e-16,-5.029911e-17,0,0,0,0,2.276704e-16,-2.276704e-16,2.276704e-16,-38.618183,3.035605e-16,2.628911e-16,0,0,0,0,0,0
1.49854,-0.689695,-10.251136,1.891618e-12,0,0,1.891618e-12,0,2.220446e-16,-3.982404e-18,0,0,0,0,2.22116e-16,-7.140207e-20,1.110937e-16,-43.972832,1.481249e-16,1.481011e-16,0,0,0,0,0,0
1.54583,-0.689695,-10.349881,1.891618e-12,0,0,1.891618e-12,0,-1.110223e-16,3.282644e-17,0,0,0,0,8.979645e-18,-1.20002e-16,6.44908e-17,60.298943,8.598773e-17,8.315628e-17,0,0,0,0,0,0
1.593121,-0.689695,-10.435717,1.891618e-12,0,0,1.891618e-12,2.220446e-16,0,5.115742e-18,0,0,0,0,2.221624e-16,-1.178004e-19,1.111401e-16,46.319118,1.481868e-16,1.481476e-16,0,0,0,0,0,0
1.640411,-0.689695,-10.501829,1.891618e-12,0,0,1.891618e-12,-1.110223e-16,0,7.467964e-18,0,0,0,0,5.000833e-19,-1.115224e-16,5.601123e-17,-48.831024,7.468164e-17,7.451551e-17,0,0,0,0,0,0
1.687701,-0.689695,-10.558892,1.891618e-12,0,0,1.891618e-12,0,2.220446e-16,-1.55221e-17,0,0,0,0,2.231244e-16,-1.079826e-18,1.121021e-16,-41.020515,1.494695e-16,1.491109e-16,0,0,0,0,0,0
1.734992,-0.689695,-10.610453,1.891618e-12,0,0,1.891618e-12,-2.220446e-16,0,-1.957033e-17,0,0,0,0,1.711673e-18,-2.237563e-16,1.12734e-16,-40.001476,1.50312e-16,1.497447e-16,0,0,0,0,0,0
1.782282,-0.689695,-10.655663,1.891618e-12,0,0,1.891618e-12,0,0,-2.958071e-17,0,0,0,0,2.958071e-17,-2.958071e-17,2.958071e-17,0,3.944095e-17,3.415686e-17,0,0,0,0,0,0
1.829573,-0.689695,-10.694722,1.891618e-12,0,0,1.891618e-12,-2.220446e-16,2.220446e-16,-1.475135e-17,0,0,0,0,2.225341e-16,-2.225341e-16,2.225341e-16,-43.099594,2.967121e-16,2.569602e-16,0,0,0,0,0,0
1.876863,-0.689695,-10.728634,1.891618e-12,0,0,1.891618e-12,0,0,1.969681e-18,0,0,0,0,1.969681e-18,-1.969681e-18,1.969681e-18,90,2.626241e-18,2.274392e-18,0,0,0,0,0,0
1.924154,-0.689695,-10.757436,1.891618e-12,0,0,1.891618e-12,2.220446e-16,-1.110223e-16,-4.064405e-17,0,0,0,0,2.269326e-16,-1.159103e-16,1.714215e-16,38.142277,2.28562e-16,2.013703e-16,0,0,0,0,0,0
1.971444,-0.689695,-10.780946,1.891618e-12,0,0,1.891618e-12,4.440892e-16,-2.220446e-16,-2.154408e-18,0,0,0,0,4.440962e-16,-2.220516e-16,3.330739e-16,44.814697,4.440985e-16,3.916578e-16,0,0,0,0,0,0
2.018735,-0.689695,-10.799562,1.891618e-12,0,0,1.891618e-12,-3.330669e-16,0,-2.58595e-18,0,0,0,0,2.007626e-20,-3.33087e-16,1.665535e-16,-44.555187,2.220714e-16,2.220647e-16,0,0,0,0,0,0
2.066025,-0.689695,-10.815721,1.891618e-12,0,0,1.891618e-12,-1.110223e-16,2.220446e-16,-2.863276e-17,0,0,0,0,2.244882e-16,-1.134658e-16,1.68977e-16,-40.122147,2.253027e-16,1.985964e-16,0,0,0,0,0,0
2.113316,-0.689695,-10.832736,1.891618e-12,0,0,1.891618e-12,-2.220446e-16,-1.110223e-16,-3.532672e-17,0,0,0,0,-1.007348e-16,-2.323321e-16,6.579867e-17,-28.763874,8.773156e-17,1.345309e-16,0,0,0,0,0,0
2.160606,-0.689695,-10.851764,1.891618e-12,0,0,1.891618e-12,0,0,6.65821e-18,0,0,0,0,6.65821e-18,-6.65821e-18,6.65821e-18,90,8.877613e-18,7.688238e-18,0,0,0,0,0,0
2.207896,-0.689695,-10.870738,1.891618e-12,0,0,1.891618e-12,-1.110223e-16,-1.110223e-16,-3.475795e-17,0,0,0,0,-7.626435e-17,-1.457802e-16,3.475795e-17,0,4.634393e-17,8.419632e-17,0,0,0,0,0,0
2.255187,-0.689695,-10.887913,1.891618e-12,0,0,1.891618e-12,2.220446e-16,-2.220446e-16,-2.008333e-17,0,0,0,0,2.22951e-16,-2.22951e-16,2.22951e-16,42.415909,2.97268e-16,2.574416e-16,0,0,0,0,0,0
2.302477,-0.689695,-10.901644,1.891618e-12,0,0,1.891618e-12,2.220446e-16,-1.110223e-16,6.046105e-17,0,0,0,0,2.326804e-16,-1.216581e-16,1.771692e-16,54.976879,2.362256e-16,2.078977e-16,0,0,0,0,0,0
2.349768,-0.689695,-10.911105,1.891618e-12,0,0,1.891618e-12,-1.110223e-16,0,-4.445054e-17,0,0,0,0,1.560381e-17,-1.266261e-16,7.111496e-17,-25.657005,9.481995e-17,9.007035e-17,0,0,0,0,0,0
2.397058,-0.689695,-10.916069,1.891618e-12,0,0,1.891618e-12,-2.220446e-16,2.220446e-16,-1.890083e-17,0,0,0,0,2.228476e-16,-2.228476e-16,2.228476e-16,-42.567307,2.971301e-16,2.573222e-16,0,0,0,0,0,0
2.444349,-0.689695,-10.916796,1.891618e-12,0,0,1.891618e-12,2.220446e-16,-1.110223e-16,-2.011736e-17,0,0,0,0,2.232553e-16,-1.12233e-16,1.677441e-16,41.556004,2.236589e-16,1.971979e-16,0,0,0,0,0,0
2.491639,-0.689695,-10.915389,1.891618e-12,0,0,1.891618e-12,0,2.220446e-16,9.799662e-18,0,0,0,0,2.224763e-16,-4.316567e-19,1.11454e-16,-47.522141,1.486053e-16,1.484616e-16,0,0,0,0,0,0
2.53893,-0.689695,-10.914036,1.891618e-12,0,0,1.891618e-12,-2.220446e-16,0,-2.434699e-18,0,0,0,0,2.669304e-20,-2.220713e-16,1.11049e-16,-44.371857,1.480653e-16,1.480564e-16,0,0,0,0,0,0
2.58622,-0.689695,-10.913814,1.891618e-12,0,0,1.891618e-12,-1.110223e-16,2.220446e-16,-2.478311e-19,0,0,0,0,2.220448e-16,-1.110225e-16,1.665336e-16,-44.957367,2.220448e-16,1.958252e-16,0,0,0,0,0,0
2.633511,-0.689695,-10.912378,1.891618e-12,0,0,1.891618e-12,4.440892e-16,2.220446e-16,3.299822e-18,0,0,0,0,4.441382e-16,2.219956e-16,1.110713e-16,45.851227,1.480951e-16,2.564233e-16,0,0,0,0,0,0
2.680801,-0.689695,-10.906976,1.891618e-12,0,0,1.891618e-12,-2.220446e-16,2.220446e-16,-2.795777e-17,0,0,0,0,2.237978e-16,-2.237978e-16,2.237978e-16,-41.411808,2.98397e-16,2.584194e-16,0,0,0,0,0,0
2.728091,-0.689695,-10.896392,1.891618e-12,0,0,1.891618e-12,0,-1.110223e-16,-1.594971e-17,0,0,0,0,2.245936e-18,-1.132682e-16,5.775709e-17,36.984676,7.700945e-17,7.627183e-17,0,0,0,0,0,0
2.775382,-0.689695,-10.881625,1.891618e-12,0,0,1.891618e-12,-1.110223e-16,2.220446e-16,-4.682136e-17,0,0,0,0,2.285014e-16,-1.174791e-16,1.729903e-16,-37.148258,2.306537e-16,2.031512e-16,0,0,0,0,0,0
2.822672,-0.689695,-10.864445,1.891618e-12,0,0,1.891618e-12,2.220446e-16,2.220446e-16,2.684883e-17,0,0,0,0,2.488934e-16,1.951958e-16,2.684883e-17,90,3.579843e-17,1.512414e-16,0,0,0,0,0,0
2.869963,-0.689695,-10.845968,1.891618e-12,0,0,1.891618e-12,2.220446e-16,2.220446e-16,-1.265452e-17,0,0,0,0,2.346991e-16,2.093901e-16,1.265452e-17,0,1.687269e-17,1.487492e-16,0,0,0,0,0,0
2.917253,-0.689695,-10.824972,1.891618e-12,0,0,1.891618e-12,-1.110223e-16,-1.110223e-16,-2.494771e-18,0,0,0,0,-1.085275e-16,-1.135171e-16,2.494771e-18,0,3.326362e-18,7.407091e-17,0,0,0,0,0,0
2.964544,-0.689695,-10.800428,1.891618e-12,0,0,1.891618e-12,0,2.220446e-16,2.997851e-17,0,0,0,0,2.260208e-16,-3.976232e-18,1.149985e-16,-52.555386,1.533314e-16,1.520233e-16,0,0,0,0,0,0
3.011834,-0.689695,-10.772495,1.891618e-12,0,0,1.891618e-12,0,2.220446e-16,-6.381081e-18,0,0,0,0,2.222278e-16,-1.832273e-19,1.112055e-16,-43.355251,1.48274e-16,1.48213e-16,0,0,0,0,0,0
3.059125,-0.689695,-10.742844,1.891618e-12,0,0,1.891618e-12,0,2.220446e-16,-3.737024e-17,0,0,0,0,2.281653e-16,-6.120715e-18,1.17143e-16,-35.698353,1.561907e-16,1.54191e-16,0,0,0,0,0,0
3.106415,-0.689695,-10.713226,1.891618e-12,0,0,1.891618e-12,2.220446e-16,2.220446e-16,4.102915e-18,0,0,0,0,2.261475e-16,2.179417e-16,4.102915e-18,90,5.470554e-18,1.481055e-16,0,0,0,0,0,0
3.153705,-0.689695,-10.682819,1.891618e-12,0,0,1.891618e-12,2.220446e-16,2.220446e-16,-1.380378e-17,0,0,0,0,2.358484e-16,2.082408e-16,1.380378e-17,0,1.840503e-17,1.488854e-16,0,0,0,0,0,0
3.200996,-0.689695,-10.647866,1.891618e-12,0,0,1.891618e-12,-4.440892e-16,0,-5.700587e-18,0,0,0,0,7.3164e-20,-4.441624e-16,2.221178e-16,-44.264679,2.96157e-16,2.961326e-16,0,0,0,0,0,0
3.248286,-0.689695,-10.603997,1.891618e-12,0,0,1.891618e-12,0,0,-9.761727e-18,0,0,0,0,9.761727e-18,-9.761727e-18,9.761727e-18,0,1.301564e-17,1.127187e-17,0,0,0,0,0,0
3.295577,-0.689695,-10.547934,1.891618e-12,0,0,1.891618e-12,0,-1.110223e-16,8.397171e-18,0,0,0,0,6.315276e-19,-1.116538e-16,5.614268e-17,49.300957,7.485691e-17,7.464729e-17,0,0,0,0,0,0
3.342867,-0.689695,-10.482649,1.891618e-12,0,0,1.891618e-12,0,-1.110223e-16,4.963351e-17,0,0,0,0,1.895342e-17,-1.299757e-16,7.446457e-17,65.90023,9.92861e-17,9.361008e-17,0,0,0,0,0,0
3.390158,-0.689695,-10.432529,1.891618e-12,0,0,1.891618e-12,2.220446e-16,2.220446e-16,-6.334388e-17,0,0,0,0,2.853885e-16,1.587007e-16,6.334388e-17,0,8.445852e-17,1.651143e-16,0,0,0,0,0,0
1.49854,-0.736985,-10.246953,1.891618e-12,0,0,1.891618e-12,2.220446e-16,-1.110223e-16,-9.948395e-18,0,0,0,0,2.223415e-16,-1.113192e-16,1.668303e-16,43.290661,2.224405e-16,1.961616e-16,0,0,0,0,0,0
1.54583,-0.736985,-10.350152,1.891618e-12,0,0,1.891618e-12,-1.110223e-16,0,-1.519111e-17,0,0,0,0,2.041065e-18,-1.130634e-16,5.755222e-17,-37.34761,7.673629e-17,7.606506e-17,0,0,0,0,0,0
1.593121,-0.736985,-10.434518,1.891618e-12,0,0,1.891618e-12,4.440892e-16,-2.220446e-16,7.935468e-17,0,0,0,0,4.53412e-16,-2.313674e-16,3.423897e-16,51.700565,4.565196e-16,4.022261e-16,0,0,0,0,0,0
1.640411,-0.736985,-10.500601,1.891618e-12,0,0,1.891618e-12,0,2.220446e-16,-4.50229e-17,0,0,0,0,2.308264e-16,-8.781759e-18,1.198041e-16,-33.962978,1.597388e-16,1.568934e-16,0,0,0,0,0,0
1.687701,-0.736985,-10.558094,1.891618e-12,0,0,1.891618e-12,-2.220446e-16,0,6.472338e-18,0,0,0,0,1.88501e-19,-2.222331e-16,1.112108e-16,-46.668217,1.482811e-16,1.482183e-16,0,0,0,0,0,0
1.734992,-0.736985,-10.610663,1.891618e-12,0,0,1.891618e-12,2.220446e-16,0,-1.863777e-17,0,0,0,0,2.235981e-16,-1.553531e-18,1.125758e-16,40.235188,1.501011e-16,1.49586e-16,0,0,0,0,0,0
1.782282,-0.736985,-10.656675,1.891618e-12,0,0,1.891618e-12,-4.440892e-16,-1.110223e-16,2.889999e-17,0,0,0,0,-1.085333e-16,-4.465782e-16,1.690225e-16,-49.922493,2.253633e-16,2.689428e-16,0,0,0,0,0,0
1.829573,-0.736985,-10.695665,1.891618e-12,0,0,1.891618e-12,0,-1.110223e-16,5.904018e-17,0,0,0,0,2.55273e-17,-1.365496e-16,8.103845e-17,68.382286,1.080513e-16,1.006273e-16,0,0,0,0,0,0
1.876863,-0.736985,-10.728839,1.891618e-12,0,0,1.891618e-12,2.220446e-16,-1.110223e-16,-9.239933e-19,0,0,0,0,2.220472e-16,-1.110249e-16,1.66536e-16,44.841053,2.22048e-16,1.958278e-16,0,0,0,0,0,0
1.924154,-0.736985,-10.756967,1.891618e-12,0,0,1.891618e-12,2.220446e-16,-2.220446e-16,-2.786683e-17,0,0,0,0,2.237864e-16,-2.237864e-16,2.237864e-16,41.423359,2.983819e-16,2.584063e-16,0,0,0,0,0,0
1.971444,-0.736985,-10.780895,1.891618e-12,0,0,1.891618e-12,2.220446e-16,-2.220446e-16,1.42116e-17,0,0,0,0,2.224989e-16,-2.224989e-16,2.224989e-16,46.831062,2.966652e-16,2.569197e-16,0,0,0,0,0,0
2.018735,-0.736985,-10.800704,1.891618e-12,0,0,1.891618e-12,0,-2.220446e-16,1.169121e-17,0,0,0,0,6.13875e-19,-2.226585e-16,1.116362e-16,48.005692,1.488482e-16,1.48644e-16,0,0,0,0,0,0
2.066025,-0.736985,-10.818243,1.891618e-12,0,0,1.891618e-12,-1.110223e-16,2.220446e-16,-3.657044e-17,0,0,0,0,2.260127e-16,-1.149904e-16,1.705016e-16,-38.80727,2.273354e-16,2.003262e-16,0,0,0,0,0,0
2.113316,-0.736985,-10.835934,1.891618e-12,0,0,1.891618e-12,-3.330669e-16,2.220446e-16,1.81665e-17,0,0,0,0,2.226385e-16,-3.336608e-16,2.781496e-16,-46.872383,3.708662e-16,3.233046e-16,0,0,0,0,0,0
2.160606,-0.736985,-10.854537,1.891618e-12,0,0,1.891618e-12,2.220446e-16,0,3.649222e-17,0,0,0,0,2.278882e-16,-5.843576e-18,1.168659e-16,54.097656,1.558212e-16,1.539103e-16,0,0,0,0,0,0
2.207896,-0.736985,-10.872312,1.891618e-12,0,0,1.891618e-12,2.220446e-16,-2.220446e-16,-5.07126e-18,0,0,0,0,2.221025e-16,-2.221025e-16,2.221025e-16,44.345825,2.961367e-16,2.564619e-16,0,0,0,0,0,0
2.255187,-0.736985,-10.888062,1.891618e-12,0,0,1.891618e-12,-3.330669e-16,-1.110223e-16,-9.338282e-18,0,0,0,0,-1.106303e-16,-3.33459e-16,1.114143e-16,-42.596035,1.485525e-16,1.961216e-16,0,0,0,0,0,0
2.302477,-0.736985,-10.900564,1.891618e-12,0,0,1.891618e-12,0,2.220446e-16,-4.723757e-17,0,0,0,0,2.316761e-16,-9.6315e-18,1.206538e-16,-33.475651,1.608717e-16,1.577593e-16,0,0,0,0,0,0
2.349768,-0.736985,-10.909224,1.891618e-12,0,0,1.891618e-12,0,-1.110223e-16,9.280182e-18,0,0,0,0,7.703706e-19,-1.117927e-16,5.628152e-17,49.74538,7.504203e-17,7.478656e-17,0,0,0,0,0,0
2.397058,-0.736985,-10.91365,1.891618e-12,0,0,1.891618e-12,2.220446e-16,2.220446e-16,9.450912e-18,0,0,0,0,2.314955e-16,2.125937e-16,9.450912e-18,90,1.260122e-17,1.484314e-16,0,0,0,0,0,0
2.444349,-0.736985,-10.914306,1.891618e-12,0,0,1.891618e-12,0,2.220446e-16,-1.985127e-17,0,0,0,0,2.238054e-16,-1.760784e-18,1.127831e-16,-39.931198,1.503775e-16,1.49794e-16,0,0,0,0,0,0
2.491639,-0.736985,-10.913485,1.891618e-12,0,0,1.891618e-12,-2.220446e-16,-1.110223e-16,-1.269641e-17,0,0,0,0,-1.095889e-16,-2.23478e-16,5.69446e-17,-38.558506,7.592613e-17,1.290331e-16,0,0,0,0,0,0
2.53893,-0.736985,-10.913087,1.891618e-12,0,0,1.891618e-12,0,2.220446e-16,-1.107214e-17,0,0,0,0,2.225953e-16,-5.507407e-19,1.11573e-16,-42.15239,1.487641e-16,1.485808e-16,0,0,0,0,0,0
2.58622,-0.736985,-10.914312,1.891618e-12,0,0,1.891618e-12,0,-1.110223e-16,9.004515e-18,0,0,0,0,7.255735e-19,-1.117479e-16,5.623673e-17,49.606876,7.49823e-17,7.474162e-17,0,0,0,0,0,0
2.633511,-0.736985,-10.914193,1.891618e-12,0,0,1.891618e-12,0,2.220446e-16,1.267025e-17,0,0,0,0,2.227652e-16,-7.206478e-19,1.11743e-16,-48.255314,1.489906e-16,1.48751e-16,0,0,0,0,0,0
2.680801,-0.736985,-10.909448,1.891618e-12,0,0,1.891618e-12,2.220446e-16,0,2.655931e-17,0,0,0,0,2.251772e-16,-3.13263e-18,1.141549e-16,51.726871,1.522066e-16,1.511732e-16,0,0,0,0,0,0
2.728091,-0.736985,-10.898823,1.891618e-12,0,0,1.891618e-12,0,0,2.741345e-17,0,0,0,0,2.741345e-17,-2.741345e-17,2.741345e-17,90,3.655126e-17,3.165432e-17,0,0,0,0,0,0
2.775382,-0.736985,-10.883646,1.891618e-12,0,0,1.891618e-12,-1.110223e-16,0,2.653239e-17,0,0,0,0,6.014904e-18,-1.170372e-16,6.152606e-17,-57.773083,8.203474e-17,8.010508e-17,0,0,0,0,0,0
2.822672,-0.736985,-10.865927,1.891618e-12,0,0,1.891618e-12,-2.220446e-16,0,-1.976141e-17,0,0,0,0,1.745002e-18,-2.237896e-16,1.127673e-16,-39.953671,1.503564e-16,1.497781e-16,0,0,0,0,0,0
2.869963,-0.736985,-10.84733,1.891618e-12,0,0,1.891618e-12,2.220446e-16,2.220446e-16,1.487596e-17,0,0,0,0,2.369206e-16,2.071686e-16,1.487596e-17,90,1.983461e-17,1.49023e-16,0,0,0,0,0,0
2.917253,-0.736985,-10.826431,1.891618e-12,0,0,1.891618e-12,0,2.220446e-16,1.802902e-17,0,0,0,0,2.23499e-16,-1.454349e-18,1.124767e-16,-49.6119,1.499689e-16,1.494864e-16,0,0,0,0,0,0
2.964544,-0.736985,-10.801884,1.891618e-12,0,0,1.891618e-12,0,2.220446e-16,-1.159969e-17,0,0,0,0,2.226489e-16,-6.043274e-19,1.116266e-16,-42.01767,1.488355e-16,1.486345e-16,0,0,0,0,0,0
3.011834,-0.736985,-10.773886,1.891618e-12,0,0,1.891618e-12,2.220446e-16,-1.110223e-16,3.586994e-17,0,0,0,0,2.258639e-16,-1.148415e-16,1.703527e-16,51.077667,2.271369e-16,2.001573e-16,0,0,0,0,0,0
3.059125,-0.736985,-10.744049,1.891618e-12,0,0,1.891618e-12,2.220446e-16,0,1.793304e-17,0,0,0,0,2.234836e-16,-1.439004e-18,1.124613e-16,49.587765,1.499484e-16,1.49471e-16,0,0,0,0,0,0
3.106415,-0.736985,-10.714369,1.891618e-12,0,0,1.891618e-12,4.440892e-16,0,1.30758e-17,0,0,0,0,4.444739e-16,-3.84672e-19,2.224293e-16,46.685078,2.965724e-16,2.964442e-16,0,0,0,0,0,0
3.153705,-0.736985,-10.684408,1.891618e-12,0,0,1.891618e-12,2.220446e-16,2.220446e-16,2.453931e-17,0,0,0,0,2.465839e-16,1.975053e-16,2.453931e-17,90,3.271908e-17,1.507173e-16,0,0,0,0,0,0
3.200996,-0.736985,-10.650115,1.891618e-12,0,0,1.891618e-12,2.220446e-16,2.220446e-16,-3.882063e-17,0,0,0,0,2.608652e-16,1.83224e-16,3.882063e-17,0,5.176084e-17,1.54668e-16,0,0,0,0,0,0
3.248286,-0.736985,-10.606943,1.891618e-12,0,0,1.891618e-12,2.220446e-16,0,-2.020278e-17,0,0,0,0,2.238678e-16,-1.823185e-18,1.128455e-16,39.843353,1.504606e-16,1.498566e-16,0,0,0,0,0,0
3.295577,-0.736985,-10.550091,1.891618e-12,0,0,1.891618e-12,2.220446e-16,2.220446e-16,-1.046416e-17,0,0,0,0,2.325088e-16,2.115805e-16,1.046416e-17,0,1.395221e-17,1.485221e-16,0,0,0,0,0,0
3.342867,-0.736985,-10.506497,1.891618e-12,0,0,1.891618e-12,2.220446e-16,-3.330669e-16,6.686094e-17,0,0,0,0,2.299842e-16,-3.410065e-16,2.854953e-16,51.772022,3.806604e-16,3.317323e-16,0,0,0,0,0,0
1.451249,-0.784275,-10.134091,1.891618e-12,0,0,1.891618e-12,0,-1.110223e-16,7.319957e-17,0,0,0,0,3.63565e-17,-1.473788e-16,9.186765e-17,71.412506,1.224902e-16,1.123496e-16,0,0,0,0,0,0
1.49854,-0.784275,-10.246245,1.891618e-12,0,0,1.891618e-12,-1.110223e-16,0,2.985475e-17,0,0,0,0,7.518952e-18,-1.185413e-16,6.30301e-17,-59.136021,8.404013e-17,8.16493e-17,0,0,0,0,0,0
1.54583,-0.784275,-10.3489,1.891618e-12,0,0,1.891618e-12,-2.220446e-16,-1.110223e-16,-1.745961e-17,0,0,0,0,-1.083413e-16,-2.247256e-16,5.819214e-17,-36.270184,7.758953e-17,1.297731e-16,0,0,0,0,0,0
1.593121,-0.784275,-10.431227,1.891618e-12,0,0,1.891618e-12,0,-1.110223e-16,-3.991983e-17,0,0,0,0,1.286341e-17,-1.238857e-16,6.837456e-17,27.139444,9.116608e-17,8.719513e-17,0,0,0,0,0,0
1.640411,-0.784275,-10.498231,1.891618e-12,0,0,1.891618e-12,2.220446e-16,0,-3.246478e-18,0,0,0,0,2.220921e-16,-4.745608e-20,1.110698e-16,44.162525,1.48093e-16,1.480772e-16,0,0,0,0,0,0
1.687701,-0.784275,-10.556959,1.891618e-12,0,0,1.891618e-12,2.220446e-16,2.220446e-16,-3.850437e-17,0,0,0,0,2.60549e-16,1.835402e-16,3.850437e-17,0,5.133916e-17,1.545626e-16,0,0,0,0,0,0
1.734992,-0.784275,-10.610907,1.891618e-12,0,0,1.891618e-12,0,-1.110223e-16,-1.447573e-17,0,0,0,0,1.856389e-18,-1.128787e-16,5.736754e-17,37.692192,7.649005e-17,7.587883e-17,0,0,0,0,0,0
1.782282,-0.784275,-10.657503,1.891618e-12,0,0,1.891618e-12,0,0,-7.572602e-19,0,0,0,0,7.572602e-19,-7.572602e-19,7.572602e-19,0,1.00968e-18,8.744087e-19,0,0,0,0,0,0
1.829573,-0.784275,-10.695569,1.891618e-12,0,0,1.891618e-12,0,0,-1.663357e-17,0,0,0,0,1.663357e-17,-1.663357e-17,1.663357e-17,0,2.21781e-17,1.92068e-17,0,0,0,0,0,0
1.876863,-0.784275,-10.72714,1.891618e-12,0,0,1.891618e-12,0,0,-1.026589e-17,0,0,0,0,1.026589e-17,-1.026589e-17,1.026589e-17,0,1.368785e-17,1.185403e-17,0,0,0,0,0,0
1.924154,-0.784275,-10.75444,1.891618e-12,0,0,1.891618e-12,-1.110223e-16,-1.110223e-16,7.922482e-18,0,0,0,0,-1.030998e-16,-1.189448e-16,7.922482e-18,90,1.056331e-17,7.457807e-17,0,0,0,0,0,0
1.971444,-0.784275,-10.778805,1.891618e-12,0,0,1.891618e-12,2.220446e-16,0,-7.066997e-18,0,0,0,0,2.222693e-16,-2.246934e-19,1.11247e-16,43.178909,1.483293e-16,1.482545e-16,0,0,0,0,0,0
2.018735,-0.784275,-10.800311,1.891618e-12,0,0,1.891618e-12,2.220446e-16,2.220446e-16,6.339422e-19,0,0,0,0,2.226786e-16,2.214107e-16,6.339422e-19,90,8.452562e-19,1.480315e-16,0,0,0,0,0,0
2.066025,-0.784275,-10.819989,1.891618e-12,0,0,1.891618e-12,0,0,-8.225175e-18,0,0,0,0,8.225175e-18,-8.225175e-18,8.225175e-18,0,1.09669e-17,9.497615e-18,0,0,0,0,0,0
2.113316,-0.784275,-10.839168,1.891618e-12,0,0,1.891618e-12,0,2.220446e-16,1.791111e-17,0,0,0,0,2.234801e-16,-1.43551e-18,1.124578e-16,-49.582253,1.499437e-16,1.494675e-16,0,0,0,0,0,0
2.160606,-0.784275,-10.858115,1.891618e-12,0,0,1.891618e-12,2.220446e-16,0,-3.240867e-18,0,0,0,0,2.220919e-16,-4.729222e-20,1.110696e-16,44.163975,1.480928e-16,1.48077e-16,0,0,0,0,0,0
2.207896,-0.784275,-10.875324,1.891618e-12,0,0,1.891618e-12,0,2.220446e-16,3.01168e-17,0,0,0,0,2.26057e-16,-4.012357e-18,1.150347e-16,-52.588634,1.533795e-16,1.520597e-16,0,0,0,0,0,0
2.255187,-0.784275,-10.889973,1.891618e-12,0,0,1.891618e-12,0,0,-1.35438e-17,0,0,0,0,1.35438e-17,-1.35438e-17,1.35438e-17,0,1.805841e-17,1.563904e-17,0,0,0,0,0,0
2.302477,-0.784275,-10.90167,1.891618e-12,0,0,1.891618e-12,2.220446e-16,0,3.091679e-18,0,0,0,0,2.220876e-16,-4.303922e-20,1.110653e-16,45.797562,1.480871e-16,1.480728e-16,0,0,0,0,0,0
2.349768,-0.784275,-10.909868,1.891618e-12,0,0,1.891618e-12,2.220446e-16,2.220446e-16,-5.073626e-17,0,0,0,0,2.727809e-16,1.713084e-16,5.073626e-17,0,6.764835e-17,1.592012e-16,0,0,0,0,0,0
2.397058,-0.784275,-10.914177,1.891618e-12,0,0,1.891618e-12,2.220446e-16,0,-1.367724e-17,0,0,0,0,2.228839e-16,-8.393018e-19,1.118616e-16,41.488457,1.491488e-16,1.488698e-16,0,0,0,0,0,0
2.444349,-0.784275,-10.91484,1.891618e-12,0,0,1.891618e-12,0,2.220446e-16,-1.951016e-18,0,0,0,0,2.220618e-16,-1.714147e-20,1.110394e-16,-44.496616,1.480526e-16,1.480469e-16,0,0,0,0,0,0
2.491639,-0.784275,-10.913981,1.891618e-12,0,0,1.891618e-12,-1.110223e-16,0,-1.346738e-17,0,0,0,0,1.610282e-18,-1.126326e-16,5.712143e-17,-38.181564,7.616191e-17,7.563086e-17,0,0,0,0,0,0
2.53893,-0.784275,-10.91362,1.891618e-12,0,0,1.891618e-12,-1.110223e-16,2.220446e-16,4.663643e-18,0,0,0,0,2.221099e-16,-1.110876e-16,1.665987e-16,-45.802052,2.221317e-16,1.95899e-16,0,0,0,0,0,0
2.58622,-0.784275,-10.914943,1.891618e-12,0,0,1.891618e-12,2.220446e-16,-1.110223e-16,-1.533121e-17,0,0,0,0,2.227488e-16,-1.117265e-16,1.672377e-16,42.370064,2.229836e-16,1.966235e-16,0,0,0,0,0,0
2.633511,-0.784275,-10.915074,1.891618e-12,0,0,1.891618e-12,0,0,2.499124e-18,0,0,0,0,2.499124e-18,-2.499124e-18,2.499124e-18,90,3.332165e-18,2.88574e-18,0,0,0,0,0,0
2.680801,-0.784275,-10.910764,1.891618e-12,0,0,1.891618e-12,2.220446e-16,0,1.726326e-17,0,0,0,0,2.233788e-16,-1.334148e-18,1.123564e-16,49.419174,1.498086e-16,1.493659e-16,0,0,0,0,0,0
2.728091,-0.784275,-10.900394,1.891618e-12,0,0,1.891618e-12,0,0,-3.45483e-17,0,0,0,0,3.45483e-17,-3.45483e-17,3.45483e-17,0,4.60644e-17,3.989294e-17,0,0,0,0,0,0
2.775382,-0.784275,-10.885387,1.891618e-12,0,0,1.891618e-12,0,2.220446e-16,-1.966056e-17,0,0,0,0,2.23772e-16,-1.727373e-18,1.127497e-16,-39.978897,1.503329e-16,1.497604e-16,0,0,0,0,0,0
2.822672,-0.784275,-10.867924,1.891618e-12,0,0,1.891618e-12,-2.220446e-16,2.220446e-16,1.588663e-17,0,0,0,0,2.226122e-16,-2.226122e-16,2.226122e-16,-47.046185,2.968163e-16,2.570504e-16,0,0,0,0,0,0
2.869963,-0.784275,-10.849761,1.891618e-12,0,0,1.891618e-12,0,2.220446e-16,-3.144116e-17,0,0,0,0,2.264108e-16,-4.366164e-18,1.153885e-16,-37.094025,1.538513e-16,1.524167e-16,0,0,0,0,0,0
2.917253,-0.784275,-10.829363,1.891618e-12,0,0,1.891618e-12,-2.220446e-16,0,-7.349838e-18,0,0,0,0,2.43019e-19,-2.222876e-16,1.112653e-16,-43.106232,1.483538e-16,1.482728e-16,0,0,0,0,0,0
2.964544,-0.784275,-10.804973,1.891618e-12,0,0,1.891618e-12,0,2.220446e-16,-6.025227e-18,0,0,0,0,2.22208e-16,-1.633756e-19,1.111857e-16,-43.446789,1.482476e-16,1.481931e-16,0,0,0,0,0,0
3.011834,-0.784275,-10.77655,1.891618e-12,0,0,1.891618e-12,4.440892e-16,2.220446e-16,-7.627289e-19,0,0,0,0,4.440918e-16,2.22042e-16,1.110249e-16,44.803192,1.480332e-16,2.563965e-16,0,0,0,0,0,0
3.059125,-0.784275,-10.745834,1.891618e-12,0,0,1.891618e-12,0,0,4.914105e-17,0,0,0,0,4.914105e-17,-4.914105e-17,4.914105e-17,90,6.55214e-17,5.674319e-17,0,0,0,0,0,0
3.106415,-0.784275,-10.715228,1.891618e-12,0,0,1.891618e-12,0,0,4.650368e-17,0,0,0,0,4.650368e-17,-4.650368e-17,4.650368e-17,90,6.200491e-17,5.369783e-17,0,0,0,0,0,0
3.153705,-0.784275,-10.684794,1.891618e-12,0,0,1.891618e-12,-2.220446e-16,0,1.607397e-17,0,0,0,0,1.157572e-18,-2.232022e-16,1.121799e-16,-49.119061,1.495732e-16,1.491888e-16,0,0,0,0,0,0
3.200996,-0.784275,-10.650397,1.891618e-12,0,0,1.891618e-12,0,-1.110223e-16,-1.995681e-17,0,0,0,0,3.478359e-18,-1.145007e-16,5.898951e-17,35.112991,7.865268e-17,7.751924e-17,0,0,0,0,0,0
3.248286,-0.784275,-10.607526,1.891618e-12,0,0,1.891618e-12,0,-2.220446e-16,1.576399e-17,0,0,0,0,1.113576e-18,-2.231582e-16,1.121359e-16,49.040688,1.495145e-16,1.491447e-16,0,0,0,0,0,0
3.295577,-0.784275,-10.551882,1.891618e-12,0,0,1.891618e-12,2.220446e-16,0,1.889178e-17,0,0,0,0,2.236405e-16,-1.595863e-18,1.126182e-16,49.828533,1.501576e-16,1.496284e-16,0,0,0,0,0,0
3.342867,-0.784275,-10.511884,1.891618e-12,0,0,1.891618e-12,-3.330669e-16,2.220446e-16,-6.041354e-17,0,0,0,0,2.285434e-16,-3.395657e-16,2.840546e-16,-38.860188,3.787394e-16,3.300791e-16,0,0,0,0,0,0
1.49854,-0.831566,-10.256051,1.891618e-12,0,0,1.891618e-12,-1.110223e-16,0,-8.748299e-17,0,0,0,0,4.809754e-17,-1.591198e-16,1.036087e-16,-16.198311,1.381449e-16,1.2523e-16,0,0,0,0,0,0
1.54583,-0.831566,-10.348139,1.891618e-12,0,0,1.891618e-12,0,0,2.005593e-18,0,0,0,0,2.005593e-18,-2.005593e-18,2.005593e-18,90,2.674124e-18,2.315859e-18,0,0,0,0,0,0
1.593121,-0.831566,-10.429722,1.891618e-12,0,0,1.891618e-12,0,0,-5.330122e-18,0,0,0,0,5.330122e-18,-5.330122e-18,5.330122e-18,0,7.10683e-18,6.154695e-18,0,0,0,0,0,0
1.640411,-0.831566,-10.497126,1.891618e-12,0,0,1.891618e-12,0,-1.110223e-16,-2.687129e-17,0,0,0,0,6.16181e-18,-1.171841e-16,6.167296e-17,32.084881,8.223061e-17,8.025556e-17,0,0,0,0,0,0
1.687701,-0.831566,-10.557366,1.891618e-12,0,0,1.891618e-12,-3.330669e-16,0,-4.49294e-17,0,0,0,0,5.95435e-18,-3.390213e-16,1.724878e-16,-37.450764,2.299837e-16,2.280249e-16,0,0,0,0,0,0
1.734992,-0.831566,-10.612515,1.891618e-12,0,0,1.891618e-12,2.220446e-16,4.440892e-16,1.710915e-17,0,0,0,0,4.453998e-16,2.20734e-16,1.123329e-16,-49.380341,1.497772e-16,2.57155e-16,0,0,0,0,0,0
1.782282,-0.831566,-10.659352,1.891618e-12,0,0,1.891618e-12,4.440892e-16,2.220446e-16,-1.592128e-17,0,0,0,0,4.45225e-16,2.209088e-16,1.121581e-16,40.919537,1.495441e-16,2.570533e-16,0,0,0,0,0,0
1.829573,-0.831566,-10.696153,1.891618e-12,0,0,1.891618e-12,0,0,-2.662327e-17,0,0,0,0,2.662327e-17,-2.662327e-17,2.662327e-17,0,3.54977e-17,3.074191e-17,0,0,0,0,0,0
1.876863,-0.831566,-10.725889,1.891618e-12,0,0,1.891618e-12,-2.220446e-16,-1.110223e-16,-3.88537e-17,0,0,0,0,-9.877581e-17,-2.342911e-16,6.775764e-17,-27.505413,9.034352e-17,1.358213e-16,0,0,0,0,0,0
1.924154,-0.831566,-10.752199,1.891618e-12,0,0,1.891618e-12,0,0,6.901454e-18,0,0,0,0,6.901454e-18,-6.901454e-18,6.901454e-18,90,9.201938e-18,7.969112e-18,0,0,0,0,0,0
1.971444,-0.831566,-10.776889,1.891618e-12,0,0,1.891618e-12,2.220446e-16,-1.110223e-16,-9.532457e-18,0,0,0,0,2.223172e-16,-1.112949e-16,1.668061e-16,43.361969,2.224081e-16,1.96134e-16,0,0,0,0,0,0
2.018735,-0.831566,-10.800177,1.891618e-12,0,0,1.891618e-12,2.220446e-16,-2.220446e-16,-2.360084e-17,0,0,0,0,2.232953e-16,-2.232953e-16,2.232953e-16,41.966442,2.977271e-16,2.578392e-16,0,0,0,0,0,0
2.066025,-0.831566,-10.822135,1.891618e-12,0,0,1.891618e-12,2.220446e-16,-2.220446e-16,-4.019781e-17,0,0,0,0,2.256539e-16,-2.256539e-16,2.256539e-16,39.869301,3.008718e-16,2.605627e-16,0,0,0,0,0,0
2.113316,-0.831566,-10.842896,1.891618e-12,0,0,1.891618e-12,0,0,1.455537e-17,0,0,0,0,1.455537e-17,-1.455537e-17,1.455537e-17,90,1.940716e-17,1.680709e-17,0,0,0,0,0,0
2.160606,-0.831566,-10.862438,1.891618e-12,0,0,1.891618e-12,2.220446e-16,0,-4.577723e-18,0,0,0,0,2.221389e-16,-9.433532e-20,1.111166e-16,43.819447,1.481555e-16,1.481241e-16,0,0,0,0,0,0
2.207896,-0.831566,-10.879576,1.891618e-12,0,0,1.891618e-12,-2.220446e-16,-1.110223e-16,-3.402895e-17,0,0,0,0,-1.014223e-16,-2.316446e-16,6.511111e-17,-29.245623,8.681482e-17,1.340842e-16,0,0,0,0,0,0
2.255187,-0.831566,-10.893811,1.891618e-12,0,0,1.891618e-12,0,0,-2.882537e-17,0,0,0,0,2.882537e-17,-2.882537e-17,2.882537e-17,0,3.843384e-17,3.328468e-17,0,0,0,0,0,0
2.302477,-0.831566,-10.905205,1.891618e-12,0,0,1.891618e-12,2.220446e-16,-1.110223e-16,2.033629e-17,0,0,0,0,2.232817e-16,-1.122594e-16,1.677705e-16,48.48111,2.236941e-16,1.972278e-16,0,0,0,0,0,0
2.349768,-0.831566,-10.913485,1.891618e-12,0,0,1.891618e-12,4.440892e-16,0,5.501095e-17,0,0,0,0,4.508022e-16,-6.712934e-18,2.287575e-16,51.957352,3.050101e-16,3.027972e-16,0,0,0,0,0,0
2.397058,-0.831566,-10.917992,1.891618e-12,0,0,1.891618e-12,0,2.220446e-16,4.005976e-17,0,0,0,0,2.290508e-16,-7.006238e-18,1.180285e-16,-54.920387,1.573714e-16,1.550887e-16,0,0,0,0,0,0
2.444349,-0.831566,-10.918652,1.891618e-12,0,0,1.891618e-12,0,0,-2.238177e-18,0,0,0,0,2.238177e-18,-2.238177e-18,2.238177e-18,0,2.984236e-18,2.584424e-18,0,0,0,0,0,0
2.491639,-0.831566,-10.917219,1.891618e-12,0,0,1.891618e-12,2.220446e-16,2.220446e-16,-3.092196e-19,0,0,0,0,2.223538e-16,2.217354e-16,3.092196e-19,0,4.122928e-19,1.480302e-16,0,0,0,0,0,0
2.53893,-0.831566,-10.915973,1.891618e-12,0,0,1.891618e-12,2.220446e-16,0,-1.386128e-17,0,0,0,0,2.229066e-16,-8.61954e-19,1.118843e-16,41.441685,1.49179e-16,1.488925e-16,0,0,0,0,0,0
2.58622,-0.831566,-10.916229,1.891618e-12,0,0,1.891618e-12,2.220446e-16,0,-1.675902e-17,0,0,0,0,2.233024e-16,-1.257777e-18,1.122801e-16,40.707954,1.497068e-16,1.492893e-16,0,0,0,0,0,0
2.633511,-0.831566,-10.915834,1.891618e-12,0,0,1.891618e-12,0,-1.110223e-16,7.089919e-18,0,0,0,0,4.509329e-19,-1.114732e-16,5.596208e-17,48.639225,7.461611e-17,7.446625e-17,0,0,0,0,0,0
2.680801,-0.831566,-10.911679,1.891618e-12,0,0,1.891618e-12,0,-2.220446e-16,2.489591e-17,0,0,0,0,2.757124e-18,-2.248017e-16,1.137794e-16,51.31953,1.517059e-16,1.507953e-16,0,0,0,0,0,0
2.728091,-0.831566,-10.9017,1.891618e-12,0,0,1.891618e-12,2.220446e-16,0,7.441385e-18,0,0,0,0,2.222937e-16,-2.491039e-19,1.112714e-16,46.917286,1.483619e-16,1.482789e-16,0,0,0,0,0,0
2.775382,-0.831566,-10.887219,1.891618e-12,0,0,1.891618e-12,-2.220446e-16,-1.110223e-16,-7.498325e-18,0,0,0,0,-1.105182e-16,-2.225487e-16,5.601529e-17,-41.153587,7.468706e-17,1.284896e-16,0,0,0,0,0,0
2.822672,-0.831566,-10.870559,1.891618e-12,0,0,1.891618e-12,-1.110223e-16,2.220446e-16,5.071678e-18,0,0,0,0,2.221218e-16,-1.110995e-16,1.666107e-16,-45.872185,2.221475e-16,1.959125e-16,0,0,0,0,0,0
2.869963,-0.831566,-10.853097,1.891618e-12,0,0,1.891618e-12,-1.110223e-16,0,-9.773354e-19,0,0,0,0,8.60287e-21,-1.110309e-16,5.551975e-17,-44.495674,7.402634e-17,7.402347e-17,0,0,0,0,0,0
2.917253,-0.831566,-10.833462,1.891618e-12,0,0,1.891618e-12,0,2.220446e-16,-2.846551e-17,0,0,0,0,2.256357e-16,-3.591121e-18,1.146134e-16,-37.809727,1.528179e-16,1.51635e-16,0,0,0,0,0,0
2.964544,-0.831566,-10.809352,1.891618e-12,0,0,1.891618e-12,-2.220446e-16,0,6.976747e-18,0,0,0,0,2.189967e-19,-2.222636e-16,1.112413e-16,-46.797897,1.483217e-16,1.482488e-16,0,0,0,0,0,0
3.011834,-0.831566,-10.780061,1.891618e-12,0,0,1.891618e-12,-2.220446e-16,-1.110223e-16,-2.160193e-17,0,0,0,0,-1.069673e-16,-2.260996e-16,5.95662e-17,-34.368355,7.942159e-17,1.306017e-16,0,0,0,0,0,0
3.059125,-0.831566,-10.747732,1.891618e-12,0,0,1.891618e-12,2.220446e-16,-2.220446e-16,-1.339734e-17,0,0,0,0,2.224484e-16,-2.224484e-16,2.224484e-16,43.273586,2.965979e-16,2.568613e-16,0,0,0,0,0,0
3.106415,-0.831566,-10.715334,1.891618e-12,0,0,1.891618e-12,2.220446e-16,0,4.371338e-17,0,0,0,0,2.303404e-16,-8.295808e-18,1.193181e-16,55.745651,1.590908e-16,1.563989e-16,0,0,0,0,0,0
3.153705,-0.831566,-10.683479,1.891618e-12,0,0,1.891618e-12,-2.220446e-16,2.220446e-16,1.403283e-17,0,0,0,0,2.224876e-16,-2.224876e-16,2.224876e-16,-46.808094,2.966501e-16,2.569065e-16,0,0,0,0,0,0
3.200996,-0.831566,-10.648246,1.891618e-12,0,0,1.891618e-12,-2.220446e-16,-2.220446e-16,4.579271e-18,0,0,0,0,-2.174653e-16,-2.266239e-16,4.579271e-18,90,6.105694e-18,1.481241e-16,0,0,0,0,0,0
3.248286,-0.831566,-10.605337,1.891618e-12,0,0,1.891618e-12,0,2.220446e-16,2.254613e-17,0,0,0,0,2.243108e-16,-2.266176e-18,1.132885e-16,-50.739689,1.510513e-16,1.503016e-16,0,0,0,0,0,0
3.295577,-0.831566,-10.552375,1.891618e-12,0,0,1.891618e-12,2.220446e-16,0,4.230849e-17,0,0,0,0,2.298329e-16,-7.788303e-18,1.188106e-16,55.430447,1.584141e-16,1.558829e-16,0,0,0,0,0,0
3.342867,-0.831566,-10.501552,1.891618e-12,0,0,1.891618e-12,0,-1.110223e-16,-1.494126e-17,0,0,0,0,1.975621e-18,-1.129979e-16,5.748677e-17,37.467709,7.664903e-17,7.599905e-17,0,0,0,0,0,0
1.49854,-0.878856,-10.254878,1.891618e-12,0,0,1.891618e-12,2.220446e-16,2.220446e-16,-5.782085e-17,0,0,0,0,2.798655e-16,1.642238e-16,5.782085e-17,0,7.709446e-17,1.623899e-16,0,0,0,0,0,0
1.54583,-0.878856,-10.350266,1.891618e-12,0,0,1.891618e-12,-1.110223e-16,4.440892e-16,-4.269631e-17,0,0,0,0,4.47354e-16,-1.142871e-16,2.808205e-16,-40.62738,3.744274e-16,3.427431e-16,0,0,0,0,0,0
1.593121,-0.878856,-10.431943,1.891618e-12,0,0,1.891618e-12,0,0,3.150982e-17,0,0,0,0,3.150982e-17,-3.150982e-17,3.150982e-17,90,4.20131e-17,3.638441e-17,0,0,0,0,0,0
1.640411,-0.878856,-10.498277,1.891618e-12,0,0,1.891618e-12,2.220446e-16,-2.220446e-16,-1.756417e-17,0,0,0,0,2.227382e-16,-2.227382e-16,2.227382e-16,42.738605,2.969843e-16,2.571959e-16,0,0,0,0,0,0
1.687701,-0.878856,-10.559828,1.891618e-12,0,0,1.891618e-12,-1.110223e-16,-2.220446e-16,-2.195662e-17,0,0,0,0,-1.068377e-16,-2.262292e-16,5.969574e-17,34.209728,7.959432e-17,1.306805e-16,0,0,0,0,0,0
1.734992,-0.878856,-10.615806,1.891618e-12,0,0,1.891618e-12,0,0,2.725447e-18,0,0,0,0,2.725447e-18,-2.725447e-18,2.725447e-18,90,3.633929e-18,3.147075e-18,0,0,0,0,0,0
1.782282,-0.878856,-10.662587,1.891618e-12,0,0,1.891618e-12,0,2.220446e-16,3.344058e-17,0,0,0,0,2.269715e-16,-4.926927e-18,1.159492e-16,-53.381306,1.54599e-16,1.529831e-16,0,0,0,0,0,0
1.829573,-0.878856,-10.698483,1.891618e-12,0,0,1.891618e-12,0,2.220446e-16,6.198722e-19,0,0,0,0,2.220463e-16,-1.730456e-21,1.11024e-16,-45.15995,1.48032e-16,1.480315e-16,0,0,0,0,0,0
1.876863,-0.878856,-10.727057,1.891618e-12,0,0,1.891618e-12,-2.220446e-16,-4.440892e-16,1.794352e-17,0,0,0,0,-2.206039e-16,-4.455299e-16,1.12463e-16,49.590401,1.499506e-16,2.572308e-16,0,0,0,0,0,0
1.924154,-0.878856,-10.752626,1.891618e-12,0,0,1.891618e-12,-1.110223e-16,-1.110223e-16,1.519309e-17,0,0,0,0,-9.582921e-17,-1.262154e-16,1.519309e-17,90,2.025746e-17,7.606559e-17,0,0,0,0,0,0
1.971444,-0.878856,-10.777523,1.891618e-12,0,0,1.891618e-12,2.220446e-16,2.220446e-16,1.724987e-17,0,0,0,0,2.392945e-16,2.047947e-16,1.724987e-17,90,2.299982e-17,1.493638e-16,0,0,0,0,0,0
2.018735,-0.878856,-10.801851,1.891618e-12,0,0,1.891618e-12,2.220446e-16,2.220446e-16,2.020751e-17,0,0,0,0,2.422521e-16,2.018371e-16,2.020751e-17,90,2.694335e-17,1.498575e-16,0,0,0,0,0,0
2.066025,-0.878856,-10.825199,1.891618e-12,0,0,1.891618e-12,2.220446e-16,2.220446e-16,1.983581e-17,0,0,0,0,2.418804e-16,2.022088e-16,1.983581e-17,90,2.644775e-17,1.497912e-16,0,0,0,0,0,0
2.113316,-0.878856,-10.846939,1.891618e-12,0,0,1.891618e-12,0,2.220446e-16,-4.336838e-18,0,0,0,0,2.221293e-16,-8.467218e-20,1.11107e-16,-43.881504,1.481426e-16,1.481144e-16,0,0,0,0,0,0
2.160606,-0.878856,-10.866606,1.891618e-12,0,0,1.891618e-12,2.220446e-16,2.220446e-16,2.142019e-17,0,0,0,0,2.434648e-16,2.006244e-16,2.142019e-17,90,2.856025e-17,1.500819e-16,0,0,0,0,0,0
2.207896,-0.878856,-10.883258,1.891618e-12,0,0,1.891618e-12,2.220446e-16,2.220446e-16,4.877137e-17,0,0,0,0,2.70816e-16,1.732732e-16,4.877137e-17,90,6.502849e-17,1.583803e-16,0,0,0,0,0,0
2.255187,-0.878856,-10.897056,1.891618e-12,0,0,1.891618e-12,0,2.220446e-16,4.00657e-17,0,0,0,0,2.290528e-16,-7.008253e-18,1.180306e-16,-54.921741,1.573741e-16,1.550908e-16,0,0,0,0,0,0
2.302477,-0.878856,-10.9083,1.891618e-12,0,0,1.891618e-12,-1.110223e-16,2.220446e-16,6.218614e-19,0,0,0,0,2.220458e-16,-1.110235e-16,1.665346e-16,-45.106976,2.220461e-16,1.958262e-16,0,0,0,0,0,0
2.349768,-0.878856,-10.916998,1.891618e-12,0,0,1.891618e-12,2.220446e-16,2.220446e-16,1.074431e-17,0,0,0,0,2.327889e-16,2.113003e-16,1.074431e-17,90,1.432575e-17,1.485487e-16,0,0,0,0,0,0
2.397058,-0.878856,-10.922107,1.891618e-12,0,0,1.891618e-12,0,0,3.927726e-17,0,0,0,0,3.927726e-17,-3.927726e-17,3.927726e-17,90,5.236968e-17,4.535348e-17,0,0,0,0,0,0
2.444349,-0.878856,-10.92296,1.891618e-12,0,0,1.891618e-12,2.220446e-16,0,2.40905e-17,0,0,0,0,2.246282e-16,-2.583612e-18,1.136059e-16,51.121353,1.514746e-16,1.506207e-16,0,0,0,0,0,0
2.491639,-0.878856,-10.921088,1.891618e-12,0,0,1.891618e-12,2.220446e-16,2.220446e-16,9.605492e-18,0,0,0,0,2.316501e-16,2.124391e-16,9.605492e-18,90,1.280732e-17,1.484447e-16,0,0,0,0,0,0
2.53893,-0.878856,-10.918903,1.891618e-12,0,0,1.891618e-12,2.220446e-16,2.220446e-16,-2.625648e-17,0,0,0,0,2.483011e-16,1.957881e-16,2.625648e-17,0,3.500865e-17,1.511026e-16,0,0,0,0,0,0
2.58622,-0.878856,-10.917938,1.891618e-12,0,0,1.891618e-12,-1.110223e-16,0,2.333334e-17,0,0,0,0,4.704566e-18,-1.157269e-16,6.021572e-17,-56.399387,8.028763e-17,7.876628e-17,0,0,0,0,0,0
2.633511,-0.878856,-10.916847,1.891618e-12,0,0,1.891618e-12,0,-2.220446e-16,1.533598e-17,0,0,0,0,1.054207e-18,-2.230988e-16,1.120765e-16,48.932369,1.494354e-16,1.490852e-16,0,0,0,0,0,0
2.680801,-0.878856,-10.912641,1.891618e-12,0,0,1.891618e-12,-2.220446e-16,2.220446e-16,1.197216e-17,0,0,0,0,2.223671e-16,-2.223671e-16,2.223671e-16,-46.543137,2.964895e-16,2.567675e-16,0,0,0,0,0,0
2.728091,-0.878856,-10.903046,1.891618e-12,0,0,1.891618e-12,0,0,-3.242236e-17,0,0,0,0,3.242236e-17,-3.242236e-17,3.242236e-17,0,4.322982e-17,3.743812e-17,0,0,0,0,0,0
2.775382,-0.878856,-10.889193,1.891618e-12,0,0,1.891618e-12,2.220446e-16,-1.110223e-16,-2.469854e-17,0,0,0,0,2.238661e-16,-1.128439e-16,1.68355e-16,40.781986,2.244733e-16,1.978908e-16,0,0,0,0,0,0
2.822672,-0.878856,-10.873353,1.891618e-12,0,0,1.891618e-12,-1.110223e-16,-1.110223e-16,1.196686e-17,0,0,0,0,-9.905544e-17,-1.229892e-16,1.196686e-17,90,1.595581e-17,7.52937e-17,0,0,0,0,0,0
2.869963,-0.878856,-10.856605,1.891618e-12,0,0,1.891618e-12,-1.110223e-16,2.220446e-16,-1.400095e-18,0,0,0,0,2.220505e-16,-1.110282e-16,1.665393e-16,-44.759155,2.220524e-16,1.958316e-16,0,0,0,0,0,0
2.917253,-0.878856,-10.837726,1.891618e-12,0,0,1.891618e-12,0,-1.110223e-16,1.753533e-17,0,0,0,0,2.703758e-18,-1.137261e-16,5.821491e-17,53.765362,7.761988e-17,7.673451e-17,0,0,0,0,0,0
2.964544,-0.878856,-10.814086,1.891618e-12,0,0,1.891618e-12,0,0,2.383051e-17,0,0,0,0,2.383051e-17,-2.383051e-17,2.383051e-17,90,3.177402e-17,2.751711e-17,0,0,0,0,0,0
3.011834,-0.878856,-10.784219,1.891618e-12,0,0,1.891618e-12,4.440892e-16,-2.220446e-16,3.884208e-18,0,0,0,0,4.441119e-16,-2.220673e-16,3.330896e-16,45.334076,4.441194e-16,3.916756e-16,0,0,0,0,0,0
3.059125,-0.878856,-10.75023,1.891618e-12,0,0,1.891618e-12,0,-1.110223e-16,1.151731e-18,0,0,0,0,1.194663e-20,-1.110343e-16,5.55231e-17,45.594296,7.40308e-17,7.402682e-17,0,0,0,0,0,0
3.106415,-0.878856,-10.715562,1.891618e-12,0,0,1.891618e-12,-4.440892e-16,0,-9.622994e-18,0,0,0,0,2.084234e-19,-4.442976e-16,2.22253e-16,-43.759232,2.963374e-16,2.962679e-16,0,0,0,0,0,0
3.153705,-0.878856,-10.681526,1.891618e-12,0,0,1.891618e-12,2.220446e-16,-1.110223e-16,-1.327446e-17,0,0,0,0,2.225728e-16,-1.115505e-16,1.670617e-16,42.721279,2.227489e-16,1.964239e-16,0,0,0,0,0,0
3.200996,-0.878856,-10.644638,1.891618e-12,0,0,1.891618e-12,0,-1.110223e-16,1.786989e-17,0,0,0,0,2.805407e-18,-1.138277e-16,5.831656e-17,53.922081,7.775541e-17,7.683735e-17,0,0,0,0,0,0
3.248286,-0.878856,-10.600978,1.891618e-12,0,0,1.891618e-12,2.220446e-16,2.220446e-16,-3.327366e-17,0,0,0,0,2.553183e-16,1.887709e-16,3.327366e-17,0,4.436488e-17,1.529346e-16,0,0,0,0,0,0
3.295577,-0.878856,-10.550039,1.891618e-12,0,0,1.891618e-12,2.220446e-16,-4.440892e-16,-1.544282e-17,0,0,0,0,2.224024e-16,-4.44447e-16,3.334247e-16,43.672676,4.445663e-16,3.920556e-16,0,0,0,0,0,0
3.342867,-0.878856,-10.485859,1.891618e-12,0,0,1.891618e-12,4.440892e-16,2.220446e-16,1.035349e-16,0,0,0,0,4.848741e-16,1.812597e-16,1.518072e-16,66.500679,2.024096e-16,2.828976e-16,0,0,0,0,0,0
3.390158,-0.878856,-10.442171,1.891618e-12,0,0,1.891618e-12,2.220446e-16,2.220446e-16,1.111514e-16,0,0,0,0,3.33196e-16,1.108932e-16,1.111514e-16,90,1.482019e-16,1.959225e-16,0,0,0,0,0,0
1.451249,-0.926147,-10.137037,1.891618e-12,0,0,1.891618e-12,-2.220446e-16,2.220446e-16,1.090206e-18,0,0,0,0,2.220473e-16,-2.220473e-16,2.220473e-16,-45.140656,2.96063e-16,2.563981e-16,0,0,0,0,0,0
1.49854,-0.926147,-10.254514,1.891618e-12,0,0,1.891618e-12,-1.110223e-16,2.220446e-16,-8.682159e-18,0,0,0,0,2.222708e-16,-1.112485e-16,1.667596e-16,-43.507805,2.223461e-16,1.960814e-16,0,0,0,0,0,0
1.54583,-0.926147,-10.352015,1.891618e-12,0,0,1.891618e-12,0,-1.110223e-16,-1.780637e-17,0,0,0,0,2.785973e-18,-1.138083e-16,5.829712e-17,36.107632,7.77295e-17,7.681768e-17,0,0,0,0,0,0
1.593121,-0.926147,-10.432788,1.891618e-12,0,0,1.891618e-12,2.220446e-16,0,-1.59708e-17,0,0,0,0,2.231874e-16,-1.142835e-18,1.121651e-16,40.907017,1.495535e-16,1.49174e-16,0,0,0,0,0,0
1.640411,-0.926147,-10.501439,1.891618e-12,0,0,1.891618e-12,2.220446e-16,0,2.916464e-17,0,0,0,0,2.258114e-16,-3.766756e-18,1.147891e-16,52.359291,1.530521e-16,1.518121e-16,0,0,0,0,0,0
1.687701,-0.926147,-10.563995,1.891618e-12,0,0,1.891618e-12,2.220446e-16,-1.110223e-16,5.581644e-17,0,0,0,0,2.311496e-16,-1.201273e-16,1.756384e-16,54.264713,2.341846e-16,2.061586e-16,0,0,0,0,0,0
1.734992,-0.926147,-10.620126,1.891618e-12,0,0,1.891618e-12,2.220446e-16,0,1.863206e-17,0,0,0,0,2.235972e-16,-1.552585e-18,1.125749e-16,49.763378,1.500998e-16,1.49585e-16,0,0,0,0,0,0
1.782282,-0.926147,-10.66651,1.891618e-12,0,0,1.891618e-12,0,-2.220446e-16,-1.474156e-17,0,0,0,0,9.744169e-19,-2.23019e-16,1.119967e-16,41.21825,1.49329e-16,1.490052e-16,0,0,0,0,0,0
1.829573,-0.926147,-10.70206,1.891618e-12,0,0,1.891618e-12,2.220446e-16,-1.110223e-16,-5.260234e-17,0,0,0,0,2.301548e-16,-1.191325e-16,1.746436e-16,36.235207,2.328582e-16,2.050287e-16,0,0,0,0,0,0
1.876863,-0.926147,-10.730322,1.891618e-12,0,0,1.891618e-12,0,2.220446e-16,-8.580749e-18,0,0,0,0,2.223757e-16,-3.31103e-19,1.113534e-16,-42.790241,1.484712e-16,1.48361e-16,0,0,0,0,0,0
1.924154,-0.926147,-10.755715,1.891618e-12,0,0,1.891618e-12,-1.110223e-16,0,1.577568e-17,0,0,0,0,2.198119e-18,-1.132204e-16,5.770927e-17,-52.932293,7.69457e-17,7.622356e-17,0,0,0,0,0,0
1.971444,-0.926147,-10.780645,1.891618e-12,0,0,1.891618e-12,0,-1.110223e-16,2.367655e-17,0,0,0,0,4.838389e-18,-1.158607e-16,6.034954e-17,56.54958,8.046605e-17,7.890272e-17,0,0,0,0,0,0
2.018735,-0.926147,-10.805272,1.891618e-12,0,0,1.891618e-12,4.440892e-16,2.220446e-16,2.261988e-17,0,0,0,0,4.463701e-16,2.197637e-16,1.133032e-16,50.757965,1.510709e-16,2.57722e-16,0,0,0,0,0,0
2.066025,-0.926147,-10.828987,1.891618e-12,0,0,1.891618e-12,2.220446e-16,2.220446e-16,3.817891e-17,0,0,0,0,2.602235e-16,1.838657e-16,3.817891e-17,90,5.090522e-17,1.544549e-16,0,0,0,0,0,0
2.113316,-0.926147,-10.850727,1.891618e-12,0,0,1.891618e-12,2.220446e-16,0,1.192093e-17,0,0,0,0,2.226828e-16,-6.38166e-19,1.116605e-16,48.064304,1.488806e-16,1.486684e-16,0,0,0,0,0,0
2.160606,-0.926147,-10.869658,1.891618e-12,0,0,1.891618e-12,2.220446e-16,0,2.808475e-17,0,0,0,0,2.255418e-16,-3.49715e-18,1.145195e-16,52.098011,1.526926e-16,1.515403e-16,0,0,0,0,0,0
2.207896,-0.926147,-10.885284,1.891618e-12,0,0,1.891618e-12,2.220446e-16,2.220446e-16,-1.460725e-17,0,0,0,0,2.366518e-16,2.074373e-16,1.460725e-17,0,1.947634e-17,1.489876e-16,0,0,0,0,0,0
2.255187,-0.926147,-10.898382,1.891618e-12,0,0,1.891618e-12,2.220446e-16,2.220446e-16,-6.694428e-18,0,0,0,0,2.28739e-16,2.153502e-16,6.694428e-18,0,8.925903e-18,1.482314e-16,0,0,0,0,0,0
2.302477,-0.926147,-10.909361,1.891618e-12,0,0,1.891618e-12,0,2.220446e-16,1.236475e-17,0,0,0,0,2.22731e-16,-6.864198e-19,1.117087e-16,-48.177471,1.48945e-16,1.487167e-16,0,0,0,0,0,0
2.349768,-0.926147,-10.918403,1.891618e-12,0,0,1.891618e-12,-2.220446e-16,2.220446e-16,-6.141764e-18,0,0,0,0,2.221295e-16,-2.221295e-16,2.221295e-16,-44.207802,2.961727e-16,2.564931e-16,0,0,0,0,0,0
2.397058,-0.926147,-10.924307,1.891618e-12,0,0,1.891618e-12,-2.220446e-16,2.220446e-16,-1.893003e-17,0,0,0,0,2.228501e-16,-2.228501e-16,2.228501e-16,-42.563564,2.971334e-16,2.573251e-16,0,0,0,0,0,0
2.444349,-0.926147,-10.925883,1.891618e-12,0,0,1.891618e-12,2.220446e-16,0,-2.712786e-18,0,0,0,0,2.220777e-16,-3.313799e-20,1.110554e-16,44.30014,1.480739e-16,1.480629e-16,0,0,0,0,0,0
2.491639,-0.926147,-10.92427,1.891618e-12,0,0,1.891618e-12,-1.110223e-16,0,-1.8319e-17,0,0,0,0,2.944591e-18,-1.139669e-16,5.845574e-17,-35.868404,7.794099e-17,7.697824e-17,0,0,0,0,0,0
2.53893,-0.926147,-10.921626,1.891618e-12,0,0,1.891618e-12,0,-2.220446e-16,-2.786835e-17,0,0,0,0,3.444272e-18,-2.254889e-16,1.144666e-16,37.954494,1.526221e-16,1.514871e-16,0,0,0,0,0,0
2.58622,-0.926147,-10.919439,1.891618e-12,0,0,1.891618e-12,2.220446e-16,2.220446e-16,-7.848628e-18,0,0,0,0,2.298932e-16,2.14196e-16,7.848628e-18,0,1.046484e-17,1.483069e-16,0,0,0,0,0,0
2.633511,-0.926147,-10.917534,1.891618e-12,0,0,1.891618e-12,-1.110223e-16,-4.440892e-16,1.58334e-17,0,0,0,0,-1.102713e-16,-4.448402e-16,1.672845e-16,47.715576,2.230459e-16,2.674899e-16,0,0,0,0,0,0
2.680801,-0.926147,-10.913293,1.891618e-12,0,0,1.891618e-12,-2.220446e-16,2.220446e-16,-5.274212e-18,0,0,0,0,2.221072e-16,-2.221072e-16,2.221072e-16,-44.319656,2.96143e-16,2.564673e-16,0,0,0,0,0,0
2.728091,-0.926147,-10.904141,1.891618e-12,0,0,1.891618e-12,2.220446e-16,4.440892e-16,-4.977391e-17,0,0,0,0,4.547361e-16,2.113977e-16,1.216692e-16,-32.92609,1.622256e-16,2.627578e-16,0,0,0,0,0,0
2.775382,-0.926147,-10.89087,1.891618e-12,0,0,1.891618e-12,-1.110223e-16,2.220446e-16,-1.334851e-17,0,0,0,0,2.225787e-16,-1.115564e-16,1.670676e-16,-42.708622,2.227568e-16,1.964306e-16,0,0,0,0,0,0
2.822672,-0.926147,-10.875335,1.891618e-12,0,0,1.891618e-12,2.220446e-16,4.440892e-16,2.667861e-18,0,0,0,0,4.441212e-16,2.220126e-16,1.110544e-16,-45.688274,1.480725e-16,2.564135e-16,0,0,0,0,0,0
2.869963,-0.926147,-10.858878,1.891618e-12,0,0,1.891618e-12,-1.110223e-16,2.220446e-16,6.766045e-18,0,0,0,0,2.22182e-16,-1.111597e-16,1.666708e-16,-46.163288,2.222278e-16,1.959807e-16,0,0,0,0,0,0
2.917253,-0.926147,-10.840679,1.891618e-12,0,0,1.891618e-12,0,-1.110223e-16,-4.209211e-18,0,0,0,0,1.593559e-19,-1.111817e-16,5.567051e-17,42.831882,7.422734e-17,7.417428e-17,0,0,0,0,0,0
2.964544,-0.926147,-10.817872,1.891618e-12,0,0,1.891618e-12,-1.110223e-16,0,-4.770695e-17,0,0,0,0,1.768339e-17,-1.287057e-16,7.319455e-17,-24.661921,9.759272e-17,9.226486e-17,0,0,0,0,0,0
3.011834,-0.926147,-10.788388,1.891618e-12,0,0,1.891618e-12,2.220446e-16,2.220446e-16,1.194683e-17,0,0,0,0,2.339914e-16,2.100978e-16,1.194683e-17,90,1.592911e-17,1.486711e-16,0,0,0,0,0,0
3.059125,-0.926147,-10.753711,1.891618e-12,0,0,1.891618e-12,0,0,-3.348613e-18,0,0,0,0,3.348613e-18,-3.348613e-18,3.348613e-18,0,4.464817e-18,3.866645e-18,0,0,0,0,0,0
3.106415,-0.926147,-10.717201,1.891618e-12,0,0,1.891618e-12,2.220446e-16,-1.110223e-16,3.558985e-18,0,0,0,0,2.220826e-16,-1.110603e-16,1.665715e-16,45.612141,2.220953e-16,1.958681e-16,0,0,0,0,0,0
3.153705,-0.926147,-10.680957,1.891618e-12,0,0,1.891618e-12,2.220446e-16,0,3.679402e-17,0,0,0,0,2.279828e-16,-5.938168e-18,1.169605e-16,54.167885,1.559473e-16,1.540061e-16,0,0,0,0,0,0
3.200996,-0.926147,-10.642291,1.891618e-12,0,0,1.891618e-12,2.220446e-16,2.220446e-16,7.06848e-18,0,0,0,0,2.291131e-16,2.149761e-16,7.06848e-18,90,9.42464e-18,1.482546e-16,0,0,0,0,0,0
3.248286,-0.926147,-10.597752,1.891618e-12,0,0,1.891618e-12,0,2.220446e-16,-3.005092e-17,0,0,0,0,2.260397e-16,-3.995129e-18,1.150174e-16,-37.4272,1.533566e-16,1.520424e-16,0,0,0,0,0,0
3.295577,-0.926147,-10.546348,1.891618e-12,0,0,1.891618e-12,0,2.220446e-16,3.241653e-17,0,0,0,0,2.266803e-16,-4.635742e-18,1.15658e-16,-53.138432,1.542107e-16,1.526889e-16,0,0,0,0,0,0
3.342867,-0.926147,-10.484214,1.891618e-12,0,0,1.891618e-12,4.440892e-16,-1.110223e-16,7.320102e-17,0,0,0,0,4.535798e-16,-1.205129e-16,2.870463e-16,52.387226,3.827284e-16,3.495522e-16,0,0,0,0,0,0
3.390158,-0.926147,-10.443012,1.891618e-12,0,0,1.891618e-12,-4.440892e-16,2.220446e-16,-2.800938e-17,0,0,0,0,2.232203e-16,-4.452648e-16,3.342426e-16,-42.5965,4.456568e-16,3.92983e-16,0,0,0,0,0,0
1.451249,-0.973437,-10.155047,1.891618e-12,0,0,1.891618e-12,2.220446e-16,2.220446e-16,5.516917e-17,0,0,0,0,2.772138e-16,1.668754e-16,5.516917e-17,90,7.355889e-17,1.611552e-16,0,0,0,0,0,0
1.49854,-0.973437,-10.25907,1.891618e-12,0,0,1.891618e-12,-1.110223e-16,-1.110223e-16,7.808979e-17,0,0,0,0,-3.293251e-17,-1.891121e-16,7.808979e-17,90,1.041197e-16,1.166571e-16,0,0,0,0,0,0
1.54583,-0.973437,-10.353595,1.891618e-12,0,0,1.891618e-12,-1.110223e-16,0,1.567253e-17,0,0,0,0,2.170009e-18,-1.131923e-16,5.768116e-17,-52.883018,7.690822e-17,7.619518e-17,0,0,0,0,0,0
1.593121,-0.973437,-10.434894,1.891618e-12,0,0,1.891618e-12,-1.110223e-16,-1.110223e-16,2.713912e-18,0,0,0,0,-1.083084e-16,-1.137362e-16,2.713912e-18,90,3.618549e-18,7.408118e-17,0,0,0,0,0,0
1.640411,-0.973437,-10.505334,1.891618e-12,0,0,1.891618e-12,0,0,-2.671854e-17,0,0,0,0,2.671854e-17,-2.671854e-17,2.671854e-17,0,3.562472e-17,3.085191e-17,0,0,0,0,0,0
1.687701,-0.973437,-10.568479,1.891618e-12,0,0,1.891618e-12,2.220446e-16,-1.110223e-16,-2.753268e-17,0,0,0,0,2.243052e-16,-1.132829e-16,1.687941e-16,40.306156,2.250588e-16,1.983889e-16,0,0,0,0,0,0
1.734992,-0.973437,-10.624245,1.891618e-12,0,0,1.891618e-12,-2.220446e-16,2.220446e-16,1.830718e-17,0,0,0,0,2.22798e-16,-2.22798e-16,2.22798e-16,-47.356636,2.97064e-16,2.57265e-16,0,0,0,0,0,0
1.782282,-0.973437,-10.670083,1.891618e-12,0,0,1.891618e-12,0,-1.110223e-16,-2.748041e-19,0,0,0,0,6.801954e-22,-1.11023e-16,5.551183e-17,44.858181,7.401578e-17,7.401555e-17,0,0,0,0,0,0
1.829573,-0.973437,-10.705736,1.891618e-12,0,0,1.891618e-12,0,0,-1.611578e-18,0,0,0,0,1.611578e-18,-1.611578e-18,1.611578e-18,0,2.148771e-18,1.86089e-18,0,0,0,0,0,0
1.876863,-0.973437,-10.734441,1.891618e-12,0,0,1.891618e-12,-1.110223e-16,0,2.135702e-17,0,0,0,0,3.966661e-18,-1.14989e-16,5.947781e-17,-55.521713,7.930375e-17,7.801515e-17,0,0,0,0,0,0
1.924154,-0.973437,-10.76012,1.891618e-12,0,0,1.891618e-12,0,2.220446e-16,-3.606775e-17,0,0,0,0,2.277563e-16,-5.711729e-18,1.16734e-16,-36.001305,1.556454e-16,1.537768e-16,0,0,0,0,0,0
1.971444,-0.973437,-10.7851,1.891618e-12,0,0,1.891618e-12,-1.110223e-16,-2.220446e-16,-3.643251e-17,0,0,0,0,-1.001345e-16,-2.329324e-16,6.639891e-17,28.361359,8.853188e-17,1.349236e-16,0,0,0,0,0,0
2.018735,-0.973437,-10.80941,1.891618e-12,0,0,1.891618e-12,0,-1.110223e-16,1.622643e-18,0,0,0,0,2.371064e-20,-1.11046e-16,5.553486e-17,45.837166,7.404648e-17,7.403858e-17,0,0,0,0,0,0
2.066025,-0.973437,-10.832497,1.891618e-12,0,0,1.891618e-12,0,0,6.148978e-18,0,0,0,0,6.148978e-18,-6.148978e-18,6.148978e-18,90,8.198637e-18,7.100228e-18,0,0,0,0,0,0
2.113316,-0.973437,-10.85326,1.891618e-12,0,0,1.891618e-12,2.220446e-16,-1.110223e-16,1.72789e-17,0,0,0,0,2.229386e-16,-1.119163e-16,1.674275e-16,47.961803,2.232366e-16,1.968387e-16,0,0,0,0,0,0
2.160606,-0.973437,-10.870866,1.891618e-12,0,0,1.891618e-12,2.220446e-16,-4.440892e-16,-2.847366e-17,0,0,0,0,2.232595e-16,-4.453041e-16,3.342818e-16,42.55685,4.457091e-16,3.930275e-16,0,0,0,0,0,0
2.207896,-0.973437,-10.885448,1.891618e-12,0,0,1.891618e-12,0,0,4.575763e-17,0,0,0,0,4.575763e-17,-4.575763e-17,4.575763e-17,90,6.101017e-17,5.283636e-17,0,0,0,0,0,0
2.255187,-0.973437,-10.89762,1.891618e-12,0,0,1.891618e-12,0,0,-9.668132e-19,0,0,0,0,9.668132e-19,-9.668132e-19,9.668132e-19,0,1.289084e-18,1.11638e-18,0,0,0,0,0,0
2.302477,-0.973437,-10.908165,1.891618e-12,0,0,1.891618e-12,2.220446e-16,-2.220446e-16,-8.276883e-18,0,0,0,0,2.221988e-16,-2.221988e-16,2.221988e-16,43.932621,2.962651e-16,2.565731e-16,0,0,0,0,0,0
2.349768,-0.973437,-10.917443,1.891618e-12,0,0,1.891618e-12,-2.220446e-16,2.220446e-16,2.686409e-17,0,0,0,0,2.236638e-16,-2.236638e-16,2.236638e-16,-48.449203,2.982184e-16,2.582647e-16,0,0,0,0,0,0
2.397058,-0.973437,-10.924387,1.891618e-12,0,0,1.891618e-12,-1.110223e-16,0,3.867335e-17,0,0,0,0,1.214324e-17,-1.231655e-16,6.765439e-17,-62.432022,9.020585e-17,8.644288e-17,0,0,0,0,0,0
2.444349,-0.973437,-10.927253,1.891618e-12,0,0,1.891618e-12,-1.110223e-16,2.220446e-16,-1.12338e-17,0,0,0,0,2.224231e-16,-1.114008e-16,1.669119e-16,-43.070431,2.225492e-16,1.962541e-16,0,0,0,0,0,0
2.491639,-0.973437,-10.926673,1.891618e-12,0,0,1.891618e-12,-1.110223e-16,2.220446e-16,3.847694e-17,0,0,0,0,2.264318e-16,-1.154095e-16,1.709206e-16,-51.504845,2.278942e-16,2.008018e-16,0,0,0,0,0,0
2.53893,-0.973437,-10.923899,1.891618e-12,0,0,1.891618e-12,-1.110223e-16,2.220446e-16,1.677013e-17,0,0,0,0,2.228869e-16,-1.118646e-16,1.673757e-16,-47.875187,2.231676e-16,1.9678e-16,0,0,0,0,0,0
2.58622,-0.973437,-10.920966,1.891618e-12,0,0,1.891618e-12,-1.110223e-16,2.220446e-16,8.597015e-18,0,0,0,0,2.222664e-16,-1.112441e-16,1.667552e-16,-46.477589,2.223403e-16,1.960764e-16,0,0,0,0,0,0
2.633511,-0.973437,-10.918324,1.891618e-12,0,0,1.891618e-12,-2.220446e-16,-2.220446e-16,-2.155194e-17,0,0,0,0,-2.004927e-16,-2.435965e-16,2.155194e-17,0,2.873592e-17,1.50107e-16,0,0,0,0,0,0
2.680801,-0.973437,-10.913943,1.891618e-12,0,0,1.891618e-12,2.220446e-16,2.220446e-16,-1.821983e-17,0,0,0,0,2.402644e-16,2.038248e-16,1.821983e-17,0,2.429311e-17,1.495173e-16,0,0,0,0,0,0
2.728091,-0.973437,-10.905304,1.891618e-12,0,0,1.891618e-12,-1.110223e-16,2.220446e-16,-7.38569e-18,0,0,0,0,2.222083e-16,-1.11186e-16,1.666971e-16,-43.730309,2.222629e-16,1.960106e-16,0,0,0,0,0,0
2.775382,-0.973437,-10.89242,1.891618e-12,0,0,1.891618e-12,2.220446e-16,2.220446e-16,-2.066736e-17,0,0,0,0,2.42712e-16,2.013773e-16,2.066736e-17,0,2.755648e-17,1.499411e-16,0,0,0,0,0,0
2.822672,-0.973437,-10.876666,1.891618e-12,0,0,1.891618e-12,2.220446e-16,2.220446e-16,1.257016e-18,0,0,0,0,2.233016e-16,2.207876e-16,1.257016e-18,90,1.676021e-18,1.480368e-16,0,0,0,0,0,0
2.869963,-0.973437,-10.860052,1.891618e-12,0,0,1.891618e-12,-1.110223e-16,0,-3.008421e-17,0,0,0,0,7.627963e-18,-1.186503e-16,6.313911e-17,-30.772284,8.418549e-17,8.176153e-17,0,0,0,0,0,0
2.917253,-0.973437,-10.842279,1.891618e-12,0,0,1.891618e-12,0,-1.110223e-16,-6.142278e-19,0,0,0,0,3.398095e-21,-1.110257e-16,5.551455e-17,44.683025,7.40194e-17,7.401827e-17,0,0,0,0,0,0
2.964544,-0.973437,-10.820583,1.891618e-12,0,0,1.891618e-12,-1.110223e-16,-2.220446e-16,-3.265193e-17,0,0,0,0,-1.021313e-16,-2.309356e-16,6.440215e-17,29.767876,8.586953e-17,1.336268e-16,0,0,0,0,0,0
3.011834,-0.973437,-10.792478,1.891618e-12,0,0,1.891618e-12,2.220446e-16,2.220446e-16,-2.102718e-17,0,0,0,0,2.430718e-16,2.010174e-16,2.102718e-17,0,2.803624e-17,1.500077e-16,0,0,0,0,0,0
3.059125,-0.973437,-10.75829,1.891618e-12,0,0,1.891618e-12,2.220446e-16,2.220446e-16,6.405666e-18,0,0,0,0,2.284503e-16,2.156389e-16,6.405666e-18,90,8.540888e-18,1.482144e-16,0,0,0,0,0,0
3.106415,-0.973437,-10.720983,1.891618e-12,0,0,1.891618e-12,0,2.220446e-16,-7.766727e-18,0,0,0,0,2.223159e-16,-2.713348e-19,1.112936e-16,-42.999153,1.483915e-16,1.483011e-16,0,0,0,0,0,0
3.153705,-0.973437,-10.683078,1.891618e-12,0,0,1.891618e-12,-2.220446e-16,0,1.166666e-17,0,0,0,0,6.113065e-19,-2.226559e-16,1.116336e-16,-47.999424,1.488448e-16,1.486415e-16,0,0,0,0,0,0
3.200996,-0.973437,-10.642863,1.891618e-12,0,0,1.891618e-12,0,-2.220446e-16,-7.032577e-18,0,0,0,0,2.225122e-19,-2.222671e-16,1.112448e-16,43.187756,1.483264e-16,1.482523e-16,0,0,0,0,0,0
3.248286,-0.973437,-10.597403,1.891618e-12,0,0,1.891618e-12,2.220446e-16,2.220446e-16,-2.384829e-18,0,0,0,0,2.244294e-16,2.196598e-16,2.384829e-18,0,3.179772e-18,1.480554e-16,0,0,0,0,0,0
3.295577,-0.973437,-10.545145,1.891618e-12,0,0,1.891618e-12,0,2.220446e-16,-8.21517e-18,0,0,0,0,2.223481e-16,-3.035286e-19,1.113258e-16,-42.884037,1.484344e-16,1.483334e-16,0,0,0,0,0,0
3.342867,-0.973437,-10.482523,1.891618e-12,0,0,1.891618e-12,-3.330669e-16,2.220446e-16,-4.791778e-18,0,0,0,0,2.22086e-16,-3.331083e-16,2.775971e-16,-44.505466,3.701295e-16,3.226708e-16,0,0,0,0,0,0
3.390158,-0.973437,-10.441593,1.891618e-12,0,0,1.891618e-12,0,0,-4.127712e-17,0,0,0,0,4.127712e-17,-4.127712e-17,4.127712e-17,0,5.503616e-17,4.766272e-17,0,0,0,0,0,0
1.451249,-1.020728,-10.156188,1.891618e-12,0,0,1.891618e-12,0,-3.330669e-16,-2.812255e-17,0,0,0,0,2.357839e-18,-3.354248e-16,1.688913e-16,40.207439,2.251884e-16,2.244066e-16,0,0,0,0,0,0
1.49854,-1.020728,-10.26124,1.891618e-12,0,0,1.891618e-12,0,0,3.206258e-17,0,0,0,0,3.206258e-17,-3.206258e-17,3.206258e-17,90,4.27501e-17,3.702268e-17,0,0,0,0,0,0
1.54583,-1.020728,-10.357013,1.891618e-12,0,0,1.891618e-12,-1.110223e-16,-1.110223e-16,4.536095e-18,0,0,0,0,-1.064862e-16,-1.155584e-16,4.536095e-18,90,6.048127e-18,7.419997e-17,0,0,0,0,0,0
1.593121,-1.020728,-10.439405,1.891618e-12,0,0,1.891618e-12,-1.110223e-16,-1.110223e-16,-1.134266e-17,0,0,0,0,-9.967964e-17,-1.22365e-16,1.134266e-17,0,1.512355e-17,7.516476e-17,0,0,0,0,0,0
1.640411,-1.020728,-10.509341,1.891618e-12,0,0,1.891618e-12,-3.330669e-16,2.220446e-16,-4.462385e-17,0,0,0,0,2.256089e-16,-3.366312e-16,2.8112e-16,-40.433235,3.748267e-16,3.267122e-16,0,0,0,0,0,0
1.687701,-1.020728,-10.572273,1.891618e-12,0,0,1.891618e-12,2.220446e-16,2.220446e-16,2.714346e-17,0,0,0,0,2.491881e-16,1.949011e-16,2.714346e-17,90,3.619129e-17,1.513115e-16,0,0,0,0,0,0
1.734992,-1.020728,-10.626998,1.891618e-12,0,0,1.891618e-12,2.220446e-16,2.220446e-16,-4.609755e-18,0,0,0,0,2.266544e-16,2.174349e-16,4.609755e-18,0,6.14634e-18,1.481254e-16,0,0,0,0,0,0
1.782282,-1.020728,-10.67201,1.891618e-12,0,0,1.891618e-12,0,-1.110223e-16,-2.312152e-17,0,0,0,0,4.622803e-18,-1.156451e-16,6.013395e-17,33.693642,8.01786e-17,7.868295e-17,0,0,0,0,0,0
1.829573,-1.020728,-10.707701,1.891618e-12,0,0,1.891618e-12,-2.220446e-16,-2.220446e-16,-4.970163e-17,0,0,0,0,-1.72343e-16,-2.717462e-16,4.970163e-17,0,6.626884e-17,1.587655e-16,0,0,0,0,0,0
1.876863,-1.020728,-10.737274,1.891618e-12,0,0,1.891618e-12,2.220446e-16,-1.110223e-16,-1.176708e-17,0,0,0,0,2.224598e-16,-1.114375e-16,1.669487e-16,42.97913,2.225982e-16,1.962958e-16,0,0,0,0,0,0
1.924154,-1.020728,-10.763764,1.891618e-12,0,0,1.891618e-12,-2.220446e-16,2.220446e-16,-1.506394e-17,0,0,0,0,2.22555e-16,-2.22555e-16,2.22555e-16,-43.059444,2.9674e-16,2.569844e-16,0,0,0,0,0,0
1.971444,-1.020728,-10.789081,1.891618e-12,0,0,1.891618e-12,0,2.220446e-16,1.48229e-17,0,0,0,0,2.230298e-16,-9.851527e-19,1.120075e-16,-48.802372,1.493433e-16,1.49016e-16,0,0,0,0,0,0
2.018735,-1.020728,-10.813117,1.891618e-12,0,0,1.891618e-12,-1.110223e-16,2.220446e-16,-1.341484e-17,0,0,0,0,2.22584e-16,-1.115617e-16,1.670729e-16,-42.697289,2.227638e-16,1.964366e-16,0,0,0,0,0,0
2.066025,-1.020728,-10.835569,1.891618e-12,0,0,1.891618e-12,-1.110223e-16,-2.220446e-16,2.793631e-17,0,0,0,0,-1.043891e-16,-2.286779e-16,6.214439e-17,58.357048,8.285919e-17,1.321937e-16,0,0,0,0,0,0
2.113316,-1.020728,-10.855345,1.891618e-12,0,0,1.891618e-12,-3.330669e-16,-1.110223e-16,5.510912e-19,0,0,0,0,-1.110209e-16,-3.330683e-16,1.110237e-16,-45.1422,1.480316e-16,1.95826e-16,0,0,0,0,0,0
2.160606,-1.020728,-10.871929,1.891618e-12,0,0,1.891618e-12,-2.220446e-16,4.440892e-16,-3.302642e-17,0,0,0,0,4.457226e-16,-2.23678e-16,3.347003e-16,-42.168571,4.462671e-16,3.935022e-16,0,0,0,0,0,0
2.207896,-1.020728,-10.885551,1.891618e-12,0,0,1.891618e-12,2.220446e-16,2.220446e-16,2.769166e-17,0,0,0,0,2.497363e-16,1.943529e-16,2.769166e-17,90,3.692222e-17,1.514439e-16,0,0,0,0,0,0
2.255187,-1.020728,-10.897107,1.891618e-12,0,0,1.891618e-12,4.440892e-16,2.220446e-16,3.609831e-18,0,0,0,0,4.441479e-16,2.219859e-16,1.11081e-16,45.931141,1.48108e-16,2.564289e-16,0,0,0,0,0,0
2.302477,-1.020728,-10.907495,1.891618e-12,0,0,1.891618e-12,2.220446e-16,2.220446e-16,4.416915e-17,0,0,0,0,2.662137e-16,1.778755e-16,4.416915e-17,90,5.88922e-17,1.565695e-16,0,0,0,0,0,0
2.349768,-1.020728,-10.917188,1.891618e-12,0,0,1.891618e-12,-4.440892e-16,-2.220446e-16,3.819067e-17,0,0,0,0,-2.156596e-16,-4.504743e-16,1.174073e-16,-54.491379,1.565431e-16,2.601598e-16,0,0,0,0,0,0
2.397058,-1.020728,-10.925046,1.891618e-12,0,0,1.891618e-12,-1.110223e-16,2.220446e-16,2.778747e-17,0,0,0,0,2.24347e-16,-1.133247e-16,1.688358e-16,-49.7365,2.251144e-16,1.984362e-16,0,0,0,0,0,0
2.444349,-1.020728,-10.929081,1.891618e-12,0,0,1.891618e-12,0,0,1.030397e-17,0,0,0,0,1.030397e-17,-1.030397e-17,1.030397e-17,90,1.373863e-17,1.1898e-17,0,0,0,0,0,0
2.491639,-1.020728,-10.929394,1.891618e-12,0,0,1.891618e-12,0,4.440892e-16,-1.003515e-17,0,0,0,0,4.443158e-16,-2.266503e-19,2.222713e-16,-43.706158,2.963617e-16,2.962861e-16,0,0,0,0,0,0
2.53893,-1.020728,-10.926782,1.891618e-12,0,0,1.891618e-12,0,-2.220446e-16,3.588365e-17,0,0,0,0,5.654979e-18,-2.276996e-16,1.166773e-16,53.955708,1.555697e-16,1.537194e-16,0,0,0,0,0,0
2.58622,-1.020728,-10.923197,1.891618e-12,0,0,1.891618e-12,-4.440892e-16,2.220446e-16,1.325601e-17,0,0,0,0,2.223083e-16,-4.443529e-16,3.333306e-16,-46.13958,4.444408e-16,3.919489e-16,0,0,0,0,0,0
2.633511,-1.020728,-10.91968,1.891618e-12,0,0,1.891618e-12,0,-1.110223e-16,-9.528006e-18,0,0,0,0,8.117643e-19,-1.118341e-16,5.632291e-17,40.130291,7.509722e-17,7.48281e-17,0,0,0,0,0,0
2.680801,-1.020728,-10.914892,1.891618e-12,0,0,1.891618e-12,0,-1.110223e-16,4.783896e-17,0,0,0,0,1.77695e-17,-1.287918e-16,7.328065e-17,65.37722,9.770753e-17,9.235595e-17,0,0,0,0,0,0
2.728091,-1.020728,-10.906384,1.891618e-12,0,0,1.891618e-12,-1.110223e-16,0,-2.185244e-17,0,0,0,0,4.146348e-18,-1.151686e-16,5.96575e-17,-34.256245,7.954334e-17,7.819787e-17,0,0,0,0,0,0
2.775382,-1.020728,-10.893734,1.891618e-12,0,0,1.891618e-12,2.220446e-16,-2.220446e-16,-4.570401e-17,0,0,0,0,2.266995e-16,-2.266995e-16,2.266995e-16,39.184551,3.02266e-16,2.6177e-16,0,0,0,0,0,0
2.822672,-1.020728,-10.877828,1.891618e-12,0,0,1.891618e-12,2.220446e-16,0,1.721937e-17,0,0,0,0,2.23372e-16,-1.327412e-18,1.123497e-16,49.408115,1.497996e-16,1.493591e-16,0,0,0,0,0,0
2.869963,-1.020728,-10.860843,1.891618e-12,0,0,1.891618e-12,0,2.220446e-16,-4.595342e-18,0,0,0,0,2.221397e-16,-9.506259e-20,1.111174e-16,-43.814907,1.481565e-16,1.481248e-16,0,0,0,0,0,0
2.917253,-1.020728,-10.84318,1.891618e-12,0,0,1.891618e-12,2.220446e-16,0,5.763808e-18,0,0,0,0,2.221941e-16,-1.495156e-19,1.111718e-16,46.485943,1.482291e-16,1.481793e-16,0,0,0,0,0,0
2.964544,-1.020728,-10.822573,1.891618e-12,0,0,1.891618e-12,4.440892e-16,0,1.439331e-17,0,0,0,0,4.445552e-16,-4.660105e-19,2.225106e-16,46.854412,2.966808e-16,2.965256e-16,0,0,0,0,0,0
3.011834,-1.020728,-10.796256,1.891618e-12,0,0,1.891618e-12,2.220446e-16,-2.220446e-16,1.301698e-17,0,0,0,0,2.224258e-16,-2.224258e-16,2.224258e-16,46.677513,2.965678e-16,2.568352e-16,0,0,0,0,0,0
3.059125,-1.020728,-10.763635,1.891618e-12,0,0,1.891618e-12,0,0,-2.418821e-18,0,0,0,0,2.418821e-18,-2.418821e-18,2.418821e-18,0,3.225095e-18,2.793014e-18,0,0,0,0,0,0
3.106415,-1.020728,-10.726827,1.891618e-12,0,0,1.891618e-12,2.220446e-16,0,-3.160595e-18,0,0,0,0,2.220896e-16,-4.497897e-20,1.110673e-16,44.184669,1.480897e-16,1.480747e-16,0,0,0,0,0,0
3.153705,-1.020728,-10.688119,1.891618e-12,0,0,1.891618e-12,2.220446e-16,2.220446e-16,-2.303897e-17,0,0,0,0,2.450836e-16,1.990056e-16,2.303897e-17,0,3.071862e-17,1.504012e-16,0,0,0,0,0,0
3.200996,-1.020728,-10.646494,1.891618e-12,0,0,1.891618e-12,2.220446e-16,-1.110223e-16,-5.184139e-18,0,0,0,0,2.221253e-16,-1.11103e-16,1.666141e-16,44.108486,2.221522e-16,1.959164e-16,0,0,0,0,0,0
3.248286,-1.020728,-10.599849,1.891618e-12,0,0,1.891618e-12,-2.220446e-16,2.220446e-16,-3.220212e-17,0,0,0,0,2.243675e-16,-2.243675e-16,2.243675e-16,-40.874092,2.991567e-16,2.590773e-16,0,0,0,0,0,0
3.295577,-1.020728,-10.54684,1.891618e-12,0,0,1.891618e-12,0,0,4.639394e-17,0,0,0,0,4.639394e-17,-4.639394e-17,4.639394e-17,90,6.185859e-17,5.357111e-17,0,0,0,0,0,0
3.342867,-1.020728,-10.483765,1.891618e-12,0,0,1.891618e-12,4.440892e-16,-1.110223e-16,-5.049834e-17,0,0,0,0,4.486456e-16,-1.155787e-16,2.821122e-16,39.844215,3.761496e-16,3.441545e-16,0,0,0,0,0,0
3.390158,-1.020728,-10.442733,1.891618e-12,0,0,1.891618e-12,0,0,-4.696658e-17,0,0,0,0,4.696658e-17,-4.696658e-17,4.696658e-17,0,6.262211e-17,5.423234e-17,0,0,0,0,0,0
1.451249,-1.068018,-10.155943,1.891618e-12,0,0,1.891618e-12,-1.110223e-16,-1.110223e-16,8.094254e-17,0,0,0,0,-3.007976e-17,-1.919648e-16,8.094254e-17,90,1.079234e-16,1.192216e-16,0,0,0,0,0,0
1.49854,-1.068018,-10.263091,1.891618e-12,0,0,1.891618e-12,0,0,5.303629e-17,0,0,0,0,5.303629e-17,-5.303629e-17,5.303629e-17,90,7.071506e-17,6.124103e-17,0,0,0,0,0,0
1.54583,-1.068018,-10.360609,1.891618e-12,0,0,1.891618e-12,2.220446e-16,2.220446e-16,2.151481e-17,0,0,0,0,2.435594e-16,2.005298e-16,2.151481e-17,90,2.868641e-17,1.500999e-16,0,0,0,0,0,0
1.593121,-1.068018,-10.443961,1.891618e-12,0,0,1.891618e-12,-4.440892e-16,0,2.576841e-17,0,0,0,0,1.490219e-18,-4.455794e-16,2.235348e-16,-48.309799,2.980464e-16,2.975509e-16,0,0,0,0,0,0
1.640411,-1.068018,-10.513352,1.891618e-12,0,0,1.891618e-12,0,2.220446e-16,-8.300214e-18,0,0,0,0,2.223544e-16,-3.098367e-19,1.113321e-16,-42.862213,1.484429e-16,1.483397e-16,0,0,0,0,0,0
1.687701,-1.068018,-10.575187,1.891618e-12,0,0,1.891618e-12,2.220446e-16,0,2.457111e-17,0,0,0,0,2.247311e-16,-2.686497e-18,1.137088e-16,51.239685,1.516117e-16,1.507242e-16,0,0,0,0,0,0
1.734992,-1.068018,-10.628135,1.891618e-12,0,0,1.891618e-12,0,-2.220446e-16,-4.372272e-17,0,0,0,0,8.299227e-18,-2.303438e-16,1.193215e-16,34.252262,1.590954e-16,1.564024e-16,0,0,0,0,0,0
1.782282,-1.068018,-10.672013,1.891618e-12,0,0,1.891618e-12,2.220446e-16,2.220446e-16,1.688337e-17,0,0,0,0,2.38928e-16,2.051612e-16,1.688337e-17,90,2.251116e-17,1.49308e-16,0,0,0,0,0,0
1.829573,-1.068018,-10.707879,1.891618e-12,0,0,1.891618e-12,0,0,3.759745e-17,0,0,0,0,3.759745e-17,-3.759745e-17,3.759745e-17,90,5.012993e-17,4.341379e-17,0,0,0,0,0,0
1.876863,-1.068018,-10.738681,1.891618e-12,0,0,1.891618e-12,2.220446e-16,2.220446e-16,-2.440272e-17,0,0,0,0,2.464473e-16,1.976419e-16,2.440272e-17,0,3.253696e-17,1.506877e-16,0,0,0,0,0,0
1.924154,-1.068018,-10.766561,1.891618e-12,0,0,1.891618e-12,0,0,5.821028e-18,0,0,0,0,5.821028e-18,-5.821028e-18,5.821028e-18,90,7.76137e-18,6.721544e-18,0,0,0,0,0,0
1.971444,-1.068018,-10.792801,1.891618e-12,0,0,1.891618e-12,2.220446e-16,-1.110223e-16,-2.962525e-17,0,0,0,0,2.246592e-16,-1.136369e-16,1.69148e-16,39.956482,2.255307e-16,1.987904e-16,0,0,0,0,0,0
2.018735,-1.068018,-10.817311,1.891618e-12,0,0,1.891618e-12,0,-1.110223e-16,-1.276238e-17,0,0,0,0,1.448188e-18,-1.124705e-16,5.695934e-17,38.526157,7.594579e-17,7.546769e-17,0,0,0,0,0,0
2.066025,-1.068018,-10.839835,1.891618e-12,0,0,1.891618e-12,-2.220446e-16,2.220446e-16,1.317616e-17,0,0,0,0,2.224352e-16,-2.224352e-16,2.224352e-16,-46.697979,2.965803e-16,2.56846e-16,0,0,0,0,0,0
2.113316,-1.068018,-10.85958,1.891618e-12,0,0,1.891618e-12,0,2.220446e-16,3.185765e-17,0,0,0,0,2.26525e-16,-4.480344e-18,1.155026e-16,-53.005367,1.540035e-16,1.52532e-16,0,0,0,0,0,0
2.160606,-1.068018,-10.875941,1.891618e-12,0,0,1.891618e-12,4.440892e-16,-1.110223e-16,1.271535e-17,0,0,0,0,4.443803e-16,-1.113134e-16,2.778469e-16,46.311497,3.704625e-16,3.394964e-16,0,0,0,0,0,0
2.207896,-1.068018,-10.88908,1.891618e-12,0,0,1.891618e-12,-1.110223e-16,-1.110223e-16,-3.768346e-17,0,0,0,0,-7.333884e-17,-1.487058e-16,3.768346e-17,0,5.024461e-17,8.585797e-17,0,0,0,0,0,0
2.255187,-1.068018,-10.90013,1.891618e-12,0,0,1.891618e-12,-1.110223e-16,0,-6.94079e-19,0,0,0,0,4.33901e-21,-1.110266e-16,5.551549e-17,-44.641823,7.402065e-17,7.40192e-17,0,0,0,0,0,0
2.302477,-1.068018,-10.910251,1.891618e-12,0,0,1.891618e-12,0,0,7.376716e-18,0,0,0,0,7.376716e-18,-7.376716e-18,7.376716e-18,90,9.83562e-18,8.517897e-18,0,0,0,0,0,0
2.349768,-1.068018,-10.919858,1.891618e-12,0,0,1.891618e-12,2.220446e-16,-1.110223e-16,-3.353533e-17,0,0,0,0,2.253876e-16,-1.143653e-16,1.698765e-16,39.307224,2.265019e-16,1.996169e-16,0,0,0,0,0,0
2.397058,-1.068018,-10.928129,1.891618e-12,0,0,1.891618e-12,2.220446e-16,2.220446e-16,4.67036e-17,0,0,0,0,2.687482e-16,1.75341e-16,4.67036e-17,90,6.227146e-17,1.575471e-16,0,0,0,0,0,0
2.444349,-1.068018,-10.932771,1.891618e-12,0,0,1.891618e-12,-4.440892e-16,2.220446e-16,3.53139e-17,0,0,0,0,2.239115e-16,-4.459561e-16,3.349338e-16,-48.026127,4.465784e-16,3.937669e-16,0,0,0,0,0,0
2.491639,-1.068018,-10.933319,1.891618e-12,0,0,1.891618e-12,2.220446e-16,-2.220446e-16,-1.899125e-17,0,0,0,0,2.228553e-16,-2.228553e-16,2.228553e-16,42.555725,2.971404e-16,2.573311e-16,0,0,0,0,0,0
2.53893,-1.068018,-10.930348,1.891618e-12,0,0,1.891618e-12,-2.220446e-16,-1.110223e-16,-2.353472e-17,0,0,0,0,-1.062394e-16,-2.268275e-16,6.029404e-17,-33.512405,8.039205e-17,1.310462e-16,0,0,0,0,0,0
2.58622,-1.068018,-10.925712,1.891618e-12,0,0,1.891618e-12,2.220446e-16,0,-4.935439e-17,0,0,0,0,2.325205e-16,-1.047588e-17,1.214982e-16,33.016354,1.619976e-16,1.58621e-16,0,0,0,0,0,0
2.633511,-1.068018,-10.92105,1.891618e-12,0,0,1.891618e-12,4.440892e-16,-4.440892e-16,6.245964e-18,0,0,0,0,4.441331e-16,-4.441331e-16,4.441331e-16,45.402897,5.921775e-16,5.128408e-16,0,0,0,0,0,0
2.680801,-1.068018,-10.915773,1.891618e-12,0,0,1.891618e-12,0,-1.110223e-16,-1.291548e-17,0,0,0,0,1.482686e-18,-1.12505e-16,5.699384e-17,38.45116,7.599179e-17,7.550241e-17,0,0,0,0,0,0
2.728091,-1.068018,-10.907346,1.891618e-12,0,0,1.891618e-12,-2.220446e-16,-2.220446e-16,1.39575e-17,0,0,0,0,-2.080871e-16,-2.360021e-16,1.39575e-17,90,1.861e-17,1.489045e-16,0,0,0,0,0,0
2.775382,-1.068018,-10.89489,1.891618e-12,0,0,1.891618e-12,0,0,-5.000668e-17,0,0,0,0,5.000668e-17,-5.000668e-17,5.000668e-17,0,6.667557e-17,5.774274e-17,0,0,0,0,0,0
2.822672,-1.068018,-10.879003,1.891618e-12,0,0,1.891618e-12,2.220446e-16,2.220446e-16,-2.952012e-17,0,0,0,0,2.515647e-16,1.925245e-16,2.952012e-17,0,3.936016e-17,1.519036e-16,0,0,0,0,0,0
2.869963,-1.068018,-10.861778,1.891618e-12,0,0,1.891618e-12,2.220446e-16,2.220446e-16,-8.163084e-18,0,0,0,0,2.302077e-16,2.138815e-16,8.163084e-18,0,1.088411e-17,1.483295e-16,0,0,0,0,0,0
2.917253,-1.068018,-10.844161,1.891618e-12,0,0,1.891618e-12,4.440892e-16,2.220446e-16,-1.848031e-17,0,0,0,0,4.456168e-16,2.20517e-16,1.125499e-16,40.274715,1.500665e-16,2.572815e-16,0,0,0,0,0,0
2.964544,-1.068018,-10.824287,1.891618e-12,0,0,1.891618e-12,2.220446e-16,2.220446e-16,2.998097e-18,0,0,0,0,2.250427e-16,2.190465e-16,2.998097e-18,90,3.997462e-18,1.480702e-16,0,0,0,0,0,0
3.011834,-1.068018,-10.799442,1.891618e-12,0,0,1.891618e-12,0,2.220446e-16,3.276394e-18,0,0,0,0,2.220929e-16,-4.833451e-20,1.110706e-16,-45.845188,1.480942e-16,1.480781e-16,0,0,0,0,0,0
3.059125,-1.068018,-10.768631,1.891618e-12,0,0,1.891618e-12,0,-1.110223e-16,2.924115e-17,0,0,0,0,7.230643e-18,-1.182529e-16,6.27418e-17,58.889271,8.365573e-17,8.135269e-17,0,0,0,0,0,0
3.106415,-1.068018,-10.733063,1.891618e-12,0,0,1.891618e-12,-4.440892e-16,2.220446e-16,1.937731e-17,0,0,0,0,2.226078e-16,-4.446524e-16,3.336301e-16,-46.664814,4.448402e-16,3.922885e-16,0,0,0,0,0,0
3.153705,-1.068018,-10.694554,1.891618e-12,0,0,1.891618e-12,-2.220446e-16,4.440892e-16,-4.050529e-18,0,0,0,0,4.441138e-16,-2.220692e-16,3.330915e-16,-44.651623,4.44122e-16,3.916778e-16,0,0,0,0,0,0
3.200996,-1.068018,-10.652436,1.891618e-12,0,0,1.891618e-12,0,0,-8.946693e-18,0,0,0,0,8.946693e-18,-8.946693e-18,8.946693e-18,0,1.192892e-17,1.033075e-17,0,0,0,0,0,0
3.248286,-1.068018,-10.604925,1.891618e-12,0,0,1.891618e-12,-2.220446e-16,2.220446e-16,4.586527e-17,0,0,0,0,2.267321e-16,-2.267321e-16,2.267321e-16,-50.835403,3.023094e-16,2.618076e-16,0,0,0,0,0,0
3.295577,-1.068018,-10.551092,1.891618e-12,0,0,1.891618e-12,-1.110223e-16,-2.220446e-16,2.557955e-18,0,0,0,0,-1.109634e-16,-2.221035e-16,5.557005e-17,46.31916,7.409341e-17,1.282315e-16,0,0,0,0,0,0
3.342867,-1.068018,-10.48747,1.891618e-12,0,0,1.891618e-12,2.220446e-16,0,2.089967e-17,0,0,0,0,2.239946e-16,-1.95003e-18,1.129723e-16,50.330513,1.506298e-16,1.49984e-16,0,0,0,0,0,0
3.390158,-1.068018,-10.446008,1.891618e-12,0,0,1.891618e-12,0,0,-3.571121e-20,0,0,0,0,3.571121e-20,-3.571121e-20,3.571121e-20,0,4.761495e-20,4.123575e-20,0,0,0,0,0,0
1.451249,-1.115309,-10.155324,1.891618e-12,0,0,1.891618e-12,-3.330669e-16,0,2.45447e-17,0,0,0,0,1.799055e-18,-3.34866e-16,1.683325e-16,-49.192116,2.244433e-16,2.238461e-16,0,0,0,0,0,0
1.49854,-1.115309,-10.264474,1.891618e-12,0,0,1.891618e-12,2.220446e-16,-1.110223e-16,-5.28624e-17,0,0,0,0,2.302333e-16,-1.19211e-16,1.747221e-16,36.19455,2.329629e-16,2.051178e-16,0,0,0,0,0,0
1.54583,-1.115309,-10.363396,1.891618e-12,0,0,1.891618e-12,-2.220446e-16,-2.220446e-16,-3.957669e-17,0,0,0,0,-1.824679e-16,-2.616213e-16,3.957669e-17,0,5.276893e-17,1.549233e-16,0,0,0,0,0,0
1.593121,-1.115309,-10.446857,1.891618e-12,0,0,1.891618e-12,2.220446e-16,2.220446e-16,3.207558e-17,0,0,0,0,2.541202e-16,1.89969e-16,3.207558e-17,90,4.276744e-17,1.525929e-16,0,0,0,0,0,0
1.640411,-1.115309,-10.516495,1.891618e-12,0,0,1.891618e-12,2.220446e-16,0,5.044604e-18,0,0,0,0,2.221592e-16,-1.145486e-19,1.111369e-16,46.3008,1.481825e-16,1.481443e-16,0,0,0,0,0,0
1.687701,-1.115309,-10.576729,1.891618e-12,0,0,1.891618e-12,-3.330669e-16,0,-1.560751e-17,0,0,0,0,7.297683e-19,-3.337967e-16,1.672632e-16,-42.322941,2.230176e-16,2.227748e-16,0,0,0,0,0,0
1.734992,-1.115309,-10.627478,1.891618e-12,0,0,1.891618e-12,0,-1.110223e-16,-4.086243e-17,0,0,0,0,1.341799e-17,-1.244403e-16,6.892914e-17,26.821381,9.190552e-17,8.777539e-17,0,0,0,0,0,0
1.782282,-1.115309,-10.67012,1.891618e-12,0,0,1.891618e-12,-2.220446e-16,2.220446e-16,-5.386953e-17,0,0,0,0,2.284857e-16,-2.284857e-16,2.284857e-16,-38.181564,3.046477e-16,2.638326e-16,0,0,0,0,0,0
1.829573,-1.115309,-10.706246,1.891618e-12,0,0,1.891618e-12,-2.220446e-16,0,-5.25879e-17,0,0,0,0,1.182492e-17,-2.338695e-16,1.228472e-16,-32.327251,1.637963e-16,1.600004e-16,0,0,0,0,0,0
1.876863,-1.115309,-10.738506,1.891618e-12,0,0,1.891618e-12,-4.440892e-16,0,-2.296325e-17,0,0,0,0,1.184241e-18,-4.452735e-16,2.232288e-16,-42.04781,2.976385e-16,2.972445e-16,0,0,0,0,0,0
1.924154,-1.115309,-10.768459,1.891618e-12,0,0,1.891618e-12,-1.110223e-16,-2.220446e-16,7.951192e-18,0,0,0,0,-1.104557e-16,-2.226112e-16,5.607771e-17,49.075684,7.477028e-17,1.285259e-16,0,0,0,0,0,0
1.971444,-1.115309,-10.796624,1.891618e-12,0,0,1.891618e-12,-1.110223e-16,-1.110223e-16,-1.021358e-17,0,0,0,0,-1.008087e-16,-1.212359e-16,1.021358e-17,0,1.36181e-17,7.494859e-17,0,0,0,0,0,0
2.018735,-1.115309,-10.822707,1.891618e-12,0,0,1.891618e-12,0,0,6.827593e-18,0,0,0,0,6.827593e-18,-6.827593e-18,6.827593e-18,90,9.103457e-18,7.883825e-18,0,0,0,0,0,0
2.066025,-1.115309,-10.846454,1.891618e-12,0,0,1.891618e-12,-1.110223e-16,0,2.617851e-18,0,0,0,0,6.169335e-20,-1.11084e-16,5.557285e-17,-46.350006,7.409713e-17,7.407657e-17,0,0,0,0,0,0
2.113316,-1.115309,-10.866953,1.891618e-12,0,0,1.891618e-12,0,0,-7.281252e-18,0,0,0,0,7.281252e-18,-7.281252e-18,7.281252e-18,0,9.708337e-18,8.407666e-18,0,0,0,0,0,0
2.160606,-1.115309,-10.883507,1.891618e-12,0,0,1.891618e-12,-1.110223e-16,2.220446e-16,1.614002e-17,0,0,0,0,2.228249e-16,-1.118026e-16,1.673138e-16,-47.767838,2.23085e-16,1.967098e-16,0,0,0,0,0,0
2.207896,-1.115309,-10.896431,1.891618e-12,0,0,1.891618e-12,2.220446e-16,0,4.184822e-17,0,0,0,0,2.296698e-16,-7.62518e-18,1.186475e-16,55.326595,1.581966e-16,1.557172e-16,0,0,0,0,0,0
2.255187,-1.115309,-10.906984,1.891618e-12,0,0,1.891618e-12,-2.220446e-16,2.220446e-16,2.603321e-17,0,0,0,0,2.235655e-16,-2.235655e-16,2.235655e-16,-48.343506,2.980873e-16,2.581512e-16,0,0,0,0,0,0
2.302477,-1.115309,-10.916571,1.891618e-12,0,0,1.891618e-12,4.440892e-16,2.220446e-16,-1.641997e-17,0,0,0,0,4.452969e-16,2.208369e-16,1.1223e-16,40.79353,1.4964e-16,2.570951e-16,0,0,0,0,0,0
2.349768,-1.115309,-10.925798,1.891618e-12,0,0,1.891618e-12,2.220446e-16,2.220446e-16,-9.064387e-18,0,0,0,0,2.31109e-16,2.129802e-16,9.064387e-18,0,1.208585e-17,1.483993e-16,0,0,0,0,0,0
2.397058,-1.115309,-10.933663,1.891618e-12,0,0,1.891618e-12,2.220446e-16,-1.110223e-16,-2.815429e-18,0,0,0,0,2.220684e-16,-1.110461e-16,1.665573e-16,44.515724,2.220763e-16,1.958519e-16,0,0,0,0,0,0
2.444349,-1.115309,-10.937809,1.891618e-12,0,0,1.891618e-12,2.220446e-16,-4.440892e-16,-2.278923e-17,0,0,0,0,2.228233e-16,-4.44868e-16,3.338456e-16,43.042892,4.451275e-16,3.925329e-16,0,0,0,0,0,0
2.491639,-1.115309,-10.937627,1.891618e-12,0,0,1.891618e-12,-2.220446e-16,2.220446e-16,3.33168e-17,0,0,0,0,2.245302e-16,-2.245302e-16,2.245302e-16,-49.266659,2.993736e-16,2.592652e-16,0,0,0,0,0,0
2.53893,-1.115309,-10.933669,1.891618e-12,0,0,1.891618e-12,-1.110223e-16,0,3.65612e-17,0,0,0,0,1.095846e-17,-1.219808e-16,6.646961e-17,-61.685013,8.862615e-17,8.520854e-17,0,0,0,0,0,0
2.58622,-1.115309,-10.927999,1.891618e-12,0,0,1.891618e-12,2.220446e-16,2.220446e-16,-2.365805e-17,0,0,0,0,2.457027e-16,1.983866e-16,2.365805e-17,0,3.154407e-17,1.505293e-16,0,0,0,0,0,0
2.633511,-1.115309,-10.922556,1.891618e-12,0,0,1.891618e-12,-2.220446e-16,2.220446e-16,-2.325971e-17,0,0,0,0,2.232595e-16,-2.232595e-16,2.232595e-16,-42.009968,2.976794e-16,2.577979e-16,0,0,0,0,0,0
2.680801,-1.115309,-10.916785,1.891618e-12,0,0,1.891618e-12,2.220446e-16,2.220446e-16,3.631579e-17,0,0,0,0,2.583604e-16,1.857288e-16,3.631579e-17,90,4.842105e-17,1.538546e-16,0,0,0,0,0,0
2.728091,-1.115309,-10.90837,1.891618e-12,0,0,1.891618e-12,-1.110223e-16,-2.220446e-16,3.921347e-17,0,0,0,0,-9.856887e-17,-2.34498e-16,6.796458e-17,62.618824,9.061944e-17,1.35959e-16,0,0,0,0,0,0
2.775382,-1.115309,-10.896193,1.891618e-12,0,0,1.891618e-12,0,0,-1.974032e-17,0,0,0,0,1.974032e-17,-1.974032e-17,1.974032e-17,0,2.632042e-17,2.279416e-17,0,0,0,0,0,0
2.822672,-1.115309,-10.880534,1.891618e-12,0,0,1.891618e-12,0,-1.110223e-16,-3.695861e-17,0,0,0,0,1.117788e-17,-1.222002e-16,6.668903e-17,28.172419,8.891871e-17,8.543683e-17,0,0,0,0,0,0
2.869963,-1.115309,-10.86323,1.891618e-12,0,0,1.891618e-12,-1.110223e-16,-2.220446e-16,1.459069e-17,0,0,0,0,-1.091368e-16,-2.239301e-16,5.739666e-17,52.363331,7.652888e-17,1.292999e-16,0,0,0,0,0,0
2.917253,-1.115309,-10.845401,1.891618e-12,0,0,1.891618e-12,2.220446e-16,-1.110223e-16,-4.718883e-17,0,0,0,0,2.286012e-16,-1.175789e-16,1.730901e-16,37.08971,2.307868e-16,2.032645e-16,0,0,0,0,0,0
2.964544,-1.115309,-10.825644,1.891618e-12,0,0,1.891618e-12,0,2.220446e-16,1.530446e-17,0,0,0,0,2.230945e-16,-1.049898e-18,1.120722e-16,-48.924385,1.494296e-16,1.490809e-16,0,0,0,0,0,0
3.011834,-1.115309,-10.801529,1.891618e-12,0,0,1.891618e-12,0,-1.110223e-16,-3.223957e-17,0,0,0,0,8.682912e-18,-1.197052e-16,6.419407e-17,29.926495,8.559208e-17,8.284958e-17,0,0,0,0,0,0
3.059125,-1.115309,-10.771999,1.891618e-12,0,0,1.891618e-12,-4.440892e-16,0,8.779831e-18,0,0,0,0,1.735132e-19,-4.442627e-16,2.222181e-16,-46.132172,2.962908e-16,2.96233e-16,0,0,0,0,0,0
3.106415,-1.115309,-10.73764,1.891618e-12,0,0,1.891618e-12,-2.220446e-16,-1.110223e-16,-1.979456e-17,0,0,0,0,-1.075986e-16,-2.254683e-16,5.893482e-17,-35.18721,7.857976e-17,1.302192e-16,0,0,0,0,0,0
3.153705,-1.115309,-10.699785,1.891618e-12,0,0,1.891618e-12,-2.220446e-16,2.220446e-16,1.86323e-17,0,0,0,0,2.22825e-16,-2.22825e-16,2.22825e-16,-47.398296,2.971e-16,2.572961e-16,0,0,0,0,0,0
3.200996,-1.115309,-10.6581,1.891618e-12,0,0,1.891618e-12,2.220446e-16,0,-3.200318e-17,0,0,0,0,2.265652e-16,-4.520571e-18,1.155429e-16,36.959946,1.540572e-16,1.525726e-16,0,0,0,0,0,0
3.248286,-1.115309,-10.610741,1.891618e-12,0,0,1.891618e-12,2.220446e-16,2.220446e-16,-6.041459e-17,0,0,0,0,2.824592e-16,1.6163e-16,6.041459e-17,0,8.055277e-17,1.63644e-16,0,0,0,0,0,0
3.295577,-1.115309,-10.556116,1.891618e-12,0,0,1.891618e-12,2.220446e-16,2.220446e-16,4.178677e-17,0,0,0,0,2.638314e-16,1.802578e-16,4.178677e-17,90,5.571569e-17,1.556952e-16,0,0,0,0,0,0
3.342867,-1.115309,-10.490991,1.891618e-12,0,0,1.891618e-12,0,-1.110223e-16,9.062752e-18,0,0,0,0,7.349276e-19,-1.117572e-16,5.624608e-17,49.636154,7.499478e-17,7.4751e-17,0,0,0,0,0,0
3.390158,-1.115309,-10.448331,1.891618e-12,0,0,1.891618e-12,2.220446e-16,2.220446e-16,3.893856e-17,0,0,0,0,2.609832e-16,1.83106e-16,3.893856e-17,90,5.191809e-17,1.547075e-16,0,0,0,0,0,0
1.451249,-1.162599,-10.156351,1.891618e-12,0,0,1.891618e-12,-1.110223e-16,2.220446e-16,6.277703e-17,0,0,0,0,2.33484e-16,-1.224617e-16,1.779729e-16,-55.327305,2.372972e-16,2.088109e-16,0,0,0,0,0,0
1.49854,-1.162599,-10.2666,1.891618e-12,0,0,1.891618e-12,0,-1.110223e-16,-5.719363e-17,0,0,0,0,2.419204e-17,-1.352143e-16,7.970319e-17,22.072371,1.062709e-16,9.919517e-17,0,0,0,0,0,0
1.54583,-1.162599,-10.366225,1.891618e-12,0,0,1.891618e-12,0,-1.110223e-16,7.797458e-18,0,0,0,0,5.449658e-19,-1.115673e-16,5.605612e-17,48.997913,7.474149e-17,7.45605e-17,0,0,0,0,0,0
1.593121,-1.162599,-10.449503,1.891618e-12,0,0,1.891618e-12,0,2.220446e-16,2.036202e-17,0,0,0,0,2.238964e-16,-1.851802e-18,1.128741e-16,-50.196407,1.504988e-16,1.498854e-16,0,0,0,0,0,0
1.640411,-1.162599,-10.518823,1.891618e-12,0,0,1.891618e-12,0,-1.110223e-16,1.011817e-17,0,0,0,0,9.145996e-19,-1.119369e-16,5.642575e-17,50.165031,7.523433e-17,7.493133e-17,0,0,0,0,0,0
1.687701,-1.162599,-10.577256,1.891618e-12,0,0,1.891618e-12,2.220446e-16,2.220446e-16,2.778923e-17,0,0,0,0,2.498338e-16,1.942554e-16,2.778923e-17,90,3.70523e-17,1.514677e-16,0,0,0,0,0,0
1.734992,-1.162599,-10.625864,1.891618e-12,0,0,1.891618e-12,2.220446e-16,2.220446e-16,1.63501e-17,0,0,0,0,2.383947e-16,2.056945e-16,1.63501e-17,90,2.180014e-17,1.492288e-16,0,0,0,0,0,0
1.782282,-1.162599,-10.667198,1.891618e-12,0,0,1.891618e-12,-2.220446e-16,-1.110223e-16,-2.82379e-17,0,0,0,0,-1.042529e-16,-2.28814e-16,6.228055e-17,-31.519033,8.304073e-17,1.322792e-16,0,0,0,0,0,0
1.829573,-1.162599,-10.703649,1.891618e-12,0,0,1.891618e-12,0,4.440892e-16,-1.719998e-17,0,0,0,0,4.447544e-16,-6.651744e-19,2.227098e-16,-42.785305,2.969464e-16,2.967249e-16,0,0,0,0,0,0
1.876863,-1.162599,-10.737522,1.891618e-12,0,0,1.891618e-12,0,-1.110223e-16,9.219045e-18,0,0,0,0,7.603221e-19,-1.117826e-16,5.627148e-17,49.714684,7.502863e-17,7.477648e-17,0,0,0,0,0,0
1.924154,-1.162599,-10.769761,1.891618e-12,0,0,1.891618e-12,0,0,-2.860538e-17,0,0,0,0,2.860538e-17,-2.860538e-17,2.860538e-17,0,3.814051e-17,3.303065e-17,0,0,0,0,0,0
1.971444,-1.162599,-10.800008,1.891618e-12,0,0,1.891618e-12,0,2.220446e-16,-2.463602e-17,0,0,0,0,2.247452e-16,-2.700541e-18,1.137228e-16,-38.74435,1.516305e-16,1.507383e-16,0,0,0,0,0,0
2.018735,-1.162599,-10.827727,1.891618e-12,0,0,1.891618e-12,-1.110223e-16,2.220446e-16,-3.13964e-17,0,0,0,0,2.249783e-16,-1.13956e-16,1.694672e-16,-39.661697,2.259562e-16,1.991525e-16,0,0,0,0,0,0
2.066025,-1.162599,-10.852841,1.891618e-12,0,0,1.891618e-12,0,2.220446e-16,-4.7107e-18,0,0,0,0,2.221445e-16,-9.989307e-20,1.111222e-16,-43.785194,1.481629e-16,1.481296e-16,0,0,0,0,0,0
2.113316,-1.162599,-10.874323,1.891618e-12,0,0,1.891618e-12,0,2.220446e-16,-6.227478e-17,0,0,0,0,2.383176e-16,-1.627302e-17,1.272953e-16,-30.355501,1.697271e-16,1.645712e-16,0,0,0,0,0,0
2.160606,-1.162599,-10.891213,1.891618e-12,0,0,1.891618e-12,2.220446e-16,2.220446e-16,7.380233e-18,0,0,0,0,2.294248e-16,2.146644e-16,7.380233e-18,90,9.84031e-18,1.482748e-16,0,0,0,0,0,0
2.207896,-1.162599,-10.903916,1.891618e-12,0,0,1.891618e-12,-1.110223e-16,2.220446e-16,-3.287722e-17,0,0,0,0,2.252589e-16,-1.142366e-16,1.697478e-16,-39.416107,2.263304e-16,1.994708e-16,0,0,0,0,0,0
2.255187,-1.162599,-10.913783,1.891618e-12,0,0,1.891618e-12,-1.110223e-16,-2.220446e-16,4.771528e-18,0,0,0,0,-1.108176e-16,-2.222493e-16,5.571584e-17,47.456425,7.428779e-17,1.283159e-16,0,0,0,0,0,0
2.302477,-1.162599,-10.922793,1.891618e-12,0,0,1.891618e-12,0,2.220446e-16,-2.76613e-18,0,0,0,0,2.220791e-16,-3.445383e-20,1.110568e-16,-44.286385,1.480757e-16,1.480642e-16,0,0,0,0,0,0
2.349768,-1.162599,-10.931383,1.891618e-12,0,0,1.891618e-12,-1.110223e-16,2.220446e-16,2.953495e-17,0,0,0,0,2.246434e-16,-1.136211e-16,1.691322e-16,-50.028458,2.255096e-16,1.987725e-16,0,0,0,0,0,0
2.397058,-1.162599,-10.93839,1.891618e-12,0,0,1.891618e-12,0,2.220446e-16,3.238039e-17,0,0,0,0,2.266702e-16,-4.625615e-18,1.156479e-16,-53.129837,1.541972e-16,1.526787e-16,0,0,0,0,0,0
2.444349,-1.162599,-10.941327,1.891618e-12,0,0,1.891618e-12,0,-1.110223e-16,3.820819e-17,0,0,0,0,1.187842e-17,-1.229007e-16,6.738957e-17,62.269772,8.985276e-17,8.616664e-17,0,0,0,0,0,0
2.491639,-1.162599,-10.939901,1.891618e-12,0,0,1.891618e-12,-1.110223e-16,0,-2.230053e-17,0,0,0,0,4.311933e-18,-1.153342e-16,5.982308e-17,-34.05658,7.976411e-17,7.836636e-17,0,0,0,0,0,0
2.53893,-1.162599,-10.934909,1.891618e-12,0,0,1.891618e-12,0,0,5.732896e-18,0,0,0,0,5.732896e-18,-5.732896e-18,5.732896e-18,90,7.64386e-18,6.619778e-18,0,0,0,0,0,0
2.58622,-1.162599,-10.928705,1.891618e-12,0,0,1.891618e-12,2.220446e-16,-1.110223e-16,4.939916e-19,0,0,0,0,2.220453e-16,-1.11023e-16,1.665342e-16,45.08498,2.220456e-16,1.958258e-16,0,0,0,0,0,0
2.633511,-1.162599,-10.922971,1.891618e-12,0,0,1.891618e-12,0,2.220446e-16,-1.786013e-17,0,0,0,0,2.23472e-16,-1.427401e-18,1.124497e-16,-40.430573,1.499329e-16,1.494594e-16,0,0,0,0,0,0
2.680801,-1.162599,-10.917219,1.891618e-12,0,0,1.891618e-12,2.220446e-16,0,-3.348739e-17,0,0,0,0,2.26985e-16,-4.940437e-18,1.159627e-16,36.60762,1.54617e-16,1.529968e-16,0,0,0,0,0,0
2.728091,-1.162599,-10.909198,1.891618e-12,0,0,1.891618e-12,2.220446e-16,2.220446e-16,-4.454866e-18,0,0,0,0,2.264995e-16,2.175897e-16,4.454866e-18,0,5.939821e-18,1.481191e-16,0,0,0,0,0,0
2.775382,-1.162599,-10.897636,1.891618e-12,0,0,1.891618e-12,-1.110223e-16,2.220446e-16,1.100428e-17,0,0,0,0,2.224078e-16,-1.113855e-16,1.668966e-16,-46.890263,2.225288e-16,1.962368e-16,0,0,0,0,0,0
2.822672,-1.162599,-10.882452,1.891618e-12,0,0,1.891618e-12,0,-1.110223e-16,6.592467e-18,0,0,0,0,3.900878e-19,-1.114124e-16,5.590124e-17,48.386345,7.453499e-17,7.44053e-17,0,0,0,0,0,0
2.869963,-1.162599,-10.865242,1.891618e-12,0,0,1.891618e-12,-1.110223e-16,2.220446e-16,-1.396132e-17,0,0,0,0,2.226288e-16,-1.116065e-16,1.671177e-16,-42.603909,2.228235e-16,1.964874e-16,0,0,0,0,0,0
2.917253,-1.162599,-10.847027,1.891618e-12,0,0,1.891618e-12,0,0,3.059011e-17,0,0,0,0,3.059011e-17,-3.059011e-17,3.059011e-17,90,4.078681e-17,3.532241e-17,0,0,0,0,0,0
2.964544,-1.162599,-10.826815,1.891618e-12,0,0,1.891618e-12,0,2.220446e-16,-1.316161e-17,0,0,0,0,2.22822e-16,-7.774279e-19,1.117997e-16,-41.619591,1.490663e-16,1.488078e-16,0,0,0,0,0,0
3.011834,-1.162599,-10.802733,1.891618e-12,0,0,1.891618e-12,-4.440892e-16,2.220446e-16,-3.146848e-17,0,0,0,0,2.235279e-16,-4.455725e-16,3.345502e-16,-42.301331,4.460669e-16,3.933319e-16,0,0,0,0,0,0
3.059125,-1.162599,-10.77382,1.891618e-12,0,0,1.891618e-12,-4.440892e-16,-1.110223e-16,1.037895e-18,0,0,0,0,-1.110191e-16,-4.440924e-16,1.665367e-16,-45.178543,2.220489e-16,2.668671e-16,0,0,0,0,0,0
3.106415,-1.162599,-10.740284,1.891618e-12,0,0,1.891618e-12,0,2.220446e-16,4.063116e-19,0,0,0,0,2.220453e-16,-7.434927e-22,1.11023e-16,-45.104843,1.480307e-16,1.480305e-16,0,0,0,0,0,0
3.153705,-1.162599,-10.703046,1.891618e-12,0,0,1.891618e-12,0,-1.110223e-16,4.703531e-17,0,0,0,0,1.724741e-17,-1.282697e-16,7.275856e-17,65.137512,9.701141e-17,9.180393e-17,0,0,0,0,0,0
3.200996,-1.162599,-10.661499,1.891618e-12,0,0,1.891618e-12,2.220446e-16,2.220446e-16,-4.194822e-18,0,0,0,0,2.262394e-16,2.178498e-16,4.194822e-18,0,5.593095e-18,1.48109e-16,0,0,0,0,0,0
3.248286,-1.162599,-10.614005,1.891618e-12,0,0,1.891618e-12,4.440892e-16,-1.110223e-16,-4.015379e-17,0,0,0,0,4.469787e-16,-1.139118e-16,2.804452e-16,40.884087,3.73927e-16,3.423332e-16,0,0,0,0,0,0
3.295577,-1.162599,-10.558999,1.891618e-12,0,0,1.891618e-12,2.220446e-16,2.220446e-16,-7.168248e-18,0,0,0,0,2.292129e-16,2.148764e-16,7.168248e-18,0,9.557664e-18,1.48261e-16,0,0,0,0,0,0
3.342867,-1.162599,-10.492438,1.891618e-12,0,0,1.891618e-12,2.220446e-16,0,3.690573e-18,0,0,0,0,2.221059e-16,-6.132358e-20,1.110836e-16,45.951954,1.481115e-16,1.480911e-16,0,0,0,0,0,0
3.390158,-1.162599,-10.448886,1.891618e-12,0,0,1.891618e-12,2.220446e-16,0,3.584195e-17,0,0,0,0,2.276868e-16,-5.642163e-18,1.166645e-16,53.945965,1.555526e-16,1.537064e-16,0,0,0,0,0,0
1.451249,-1.209889,-10.158095,1.891618e-12,0,0,1.891618e-12,-1.110223e-16,2.220446e-16,2.83967e-17,0,0,0,0,2.244483e-16,-1.13426e-16,1.689372e-16,-49.838402,2.252495e-16,1.985512e-16,0,0,0,0,0,0
1.49854,-1.209889,-10.271225,1.891618e-12,0,0,1.891618e-12,2.220446e-16,2.220446e-16,2.824261e-17,0,0,0,0,2.502872e-16,1.93802e-16,2.824261e-17,90,3.765682e-17,1.515794e-16,0,0,0,0,0,0
1.54583,-1.209889,-10.370831,1.891618e-12,0,0,1.891618e-12,2.220446e-16,2.220446e-16,2.889964e-17,0,0,0,0,2.509443e-16,1.93145e-16,2.889964e-17,90,3.853285e-17,1.517445e-16,0,0,0,0,0,0
1.593121,-1.209889,-10.453523,1.891618e-12,0,0,1.891618e-12,-1.110223e-16,-2.220446e-16,-5.633234e-17,0,0,0,0,-8.744603e-17,-2.456209e-16,7.908742e-17,22.289663,1.054499e-16,1.437557e-16,0,0,0,0,0,0
1.640411,-1.209889,-10.521736,1.891618e-12,0,0,1.891618e-12,-1.110223e-16,0,-2.805886e-17,0,0,0,0,6.688428e-18,-1.177107e-16,6.219958e-17,-31.592533,8.293277e-17,8.079563e-17,0,0,0,0,0,0
1.687701,-1.209889,-10.578074,1.891618e-12,0,0,1.891618e-12,0,-1.110223e-16,-1.514404e-17,0,0,0,0,2.028659e-18,-1.13051e-16,5.753981e-17,37.370216,7.671974e-17,7.605255e-17,0,0,0,0,0,0
1.734992,-1.209889,-10.624569,1.891618e-12,0,0,1.891618e-12,-2.220446e-16,2.220446e-16,1.218101e-17,0,0,0,0,2.223785e-16,-2.223785e-16,2.223785e-16,-46.570004,2.965046e-16,2.567805e-16,0,0,0,0,0,0
1.782282,-1.209889,-10.664555,1.891618e-12,0,0,1.891618e-12,-2.220446e-16,2.220446e-16,3.02738e-17,0,0,0,0,2.240989e-16,-2.240989e-16,2.240989e-16,-48.88195,2.987985e-16,2.587671e-16,0,0,0,0,0,0
1.829573,-1.209889,-10.701284,1.891618e-12,0,0,1.891618e-12,2.220446e-16,0,-1.528506e-17,0,0,0,0,2.230919e-16,-1.04725e-18,1.120696e-16,41.080524,1.494261e-16,1.490782e-16,0,0,0,0,0,0
1.876863,-1.209889,-10.73635,1.891618e-12,0,0,1.891618e-12,0,0,-2.575207e-17,0,0,0,0,2.575207e-17,-2.575207e-17,2.575207e-17,0,3.433609e-17,2.973593e-17,0,0,0,0,0,0
1.924154,-1.209889,-10.770346,1.891618e-12,0,0,1.891618e-12,2.220446e-16,2.220446e-16,-2.844478e-18,0,0,0,0,2.248891e-16,2.192001e-16,2.844478e-18,0,3.792637e-18,1.480662e-16,0,0,0,0,0,0
1.971444,-1.209889,-10.802105,1.891618e-12,0,0,1.891618e-12,2.220446e-16,2.220446e-16,-1.291633e-17,0,0,0,0,2.349609e-16,2.091283e-16,1.291633e-17,0,1.722178e-17,1.487792e-16,0,0,0,0,0,0
2.018735,-1.209889,-10.830881,1.891618e-12,0,0,1.891618e-12,0,-1.110223e-16,-2.1694e-17,0,0,0,0,4.088494e-18,-1.151108e-16,5.959965e-17,34.32711,7.94662e-17,7.813902e-17,0,0,0,0,0,0
2.066025,-1.209889,-10.856652,1.891618e-12,0,0,1.891618e-12,2.220446e-16,2.220446e-16,2.997191e-17,0,0,0,0,2.520165e-16,1.920727e-16,2.997191e-17,90,3.996254e-17,1.520216e-16,0,0,0,0,0,0
2.113316,-1.209889,-10.878563,1.891618e-12,0,0,1.891618e-12,-1.110223e-16,0,3.255959e-17,0,0,0,0,8.844228e-18,-1.198665e-16,6.435538e-17,-60.196693,8.580717e-17,8.301628e-17,0,0,0,0,0,0
2.160606,-1.209889,-10.895639,1.891618e-12,0,0,1.891618e-12,-2.220446e-16,-2.220446e-16,1.366638e-17,0,0,0,0,-2.083782e-16,-2.35711e-16,1.366638e-17,90,1.822184e-17,1.488685e-16,0,0,0,0,0,0
2.207896,-1.209889,-10.908569,1.891618e-12,0,0,1.891618e-12,-1.110223e-16,-1.110223e-16,1.218816e-17,0,0,0,0,-9.883414e-17,-1.232105e-16,1.218816e-17,90,1.625088e-17,7.534102e-17,0,0,0,0,0,0
2.255187,-1.209889,-10.918398,1.891618e-12,0,0,1.891618e-12,-1.110223e-16,2.220446e-16,-7.032195e-18,0,0,0,0,2.22193e-16,-1.111707e-16,1.666819e-16,-43.791004,2.222425e-16,1.959932e-16,0,0,0,0,0,0
2.302477,-1.209889,-10.927118,1.891618e-12,0,0,1.891618e-12,-1.110223e-16,0,-3.326565e-17,0,0,0,0,9.204312e-18,-1.202266e-16,6.471546e-17,-29.533701,8.628729e-17,8.338868e-17,0,0,0,0,0,0
2.349768,-1.209889,-10.935049,1.891618e-12,0,0,1.891618e-12,0,0,-2.226184e-17,0,0,0,0,2.226184e-17,-2.226184e-17,2.226184e-17,0,2.968246e-17,2.570576e-17,0,0,0,0,0,0
2.397058,-1.209889,-10.940921,1.891618e-12,0,0,1.891618e-12,-1.110223e-16,2.220446e-16,-1.943834e-18,0,0,0,0,2.22056e-16,-1.110336e-16,1.665448e-16,-44.665627,2.220597e-16,1.958378e-16,0,0,0,0,0,0
2.444349,-1.209889,-10.942461,1.891618e-12,0,0,1.891618e-12,2.220446e-16,-1.110223e-16,1.581852e-17,0,0,0,0,2.227942e-16,-1.117719e-16,1.67283e-16,47.713039,2.230441e-16,1.96675e-16,0,0,0,0,0,0
2.491639,-1.209889,-10.939562,1.891618e-12,0,0,1.891618e-12,2.220446e-16,0,1.322973e-17,0,0,0,0,2.228301e-16,-7.854674e-19,1.118078e-16,48.397739,1.49077e-16,1.488159e-16,0,0,0,0,0,0
2.53893,-1.209889,-10.933573,1.891618e-12,0,0,1.891618e-12,-4.440892e-16,2.220446e-16,-2.199383e-17,0,0,0,0,2.2277e-16,-4.448146e-16,3.337923e-16,-43.111,4.450564e-16,3.924724e-16,0,0,0,0,0,0
2.58622,-1.209889,-10.927028,1.891618e-12,0,0,1.891618e-12,2.220446e-16,-1.110223e-16,3.114987e-18,0,0,0,0,2.220737e-16,-1.110514e-16,1.665626e-16,45.535793,2.220834e-16,1.95858e-16,0,0,0,0,0,0
2.633511,-1.209889,-10.921398,1.891618e-12,0,0,1.891618e-12,2.220446e-16,2.220446e-16,7.05833e-18,0,0,0,0,2.291029e-16,2.149863e-16,7.05833e-18,90,9.411106e-18,1.482539e-16,0,0,0,0,0,0
2.680801,-1.209889,-10.916082,1.891618e-12,0,0,1.891618e-12,-1.110223e-16,2.220446e-16,6.674704e-17,0,0,0,0,2.349228e-16,-1.239006e-16,1.794117e-16,-55.920521,2.392156e-16,2.104463e-16,0,0,0,0,0,0
2.728091,-1.209889,-10.90868,1.891618e-12,0,0,1.891618e-12,-2.220446e-16,2.220446e-16,2.601349e-17,0,0,0,0,2.235632e-16,-2.235632e-16,2.235632e-16,-48.340996,2.980843e-16,2.581486e-16,0,0,0,0,0,0
2.775382,-1.209889,-10.897673,1.891618e-12,0,0,1.891618e-12,0,2.220446e-16,-4.730113e-18,0,0,0,0,2.221453e-16,-1.007177e-19,1.11123e-16,-43.780193,1.48164e-16,1.481305e-16,0,0,0,0,0,0
2.822672,-1.209889,-10.882888,1.891618e-12,0,0,1.891618e-12,-1.110223e-16,0,2.196034e-17,0,0,0,0,4.185956e-18,-1.152083e-16,5.969711e-17,-55.791935,7.959614e-17,7.823816e-17,0,0,0,0,0,0
2.869963,-1.209889,-10.865826,1.891618e-12,0,0,1.891618e-12,0,-2.220446e-16,-8.892015e-18,0,0,0,0,3.555211e-19,-2.224001e-16,1.113778e-16,42.710415,1.485038e-16,1.483854e-16,0,0,0,0,0,0
2.917253,-1.209889,-10.847335,1.891618e-12,0,0,1.891618e-12,2.220446e-16,0,1.038468e-17,0,0,0,0,2.225292e-16,-4.846176e-19,1.115069e-16,47.67186,1.486759e-16,1.485146e-16,0,0,0,0,0,0
2.964544,-1.209889,-10.826667,1.891618e-12,0,0,1.891618e-12,2.220446e-16,0,2.154127e-17,0,0,0,0,2.241151e-16,-2.070483e-18,1.130928e-16,50.490234,1.507904e-16,1.50105e-16,0,0,0,0,0,0
3.011834,-1.209889,-10.802439,1.891618e-12,0,0,1.891618e-12,-1.110223e-16,0,-2.149372e-17,0,0,0,0,4.015885e-18,-1.150382e-16,5.952703e-17,-34.416885,7.936938e-17,7.806519e-17,0,0,0,0,0,0
3.059125,-1.209889,-10.773875,1.891618e-12,0,0,1.891618e-12,-2.220446e-16,-1.110223e-16,8.084615e-18,0,0,0,0,-1.104367e-16,-2.226302e-16,5.609678e-17,-49.143135,7.479571e-17,1.28537e-16,0,0,0,0,0,0
3.106415,-1.209889,-10.740985,1.891618e-12,0,0,1.891618e-12,0,0,4.010057e-18,0,0,0,0,4.010057e-18,-4.010057e-18,4.010057e-18,90,5.346743e-18,4.630415e-18,0,0,0,0,0,0
3.153705,-1.209889,-10.704399,1.891618e-12,0,0,1.891618e-12,2.220446e-16,-2.220446e-16,-5.794801e-17,0,0,0,0,2.294816e-16,-2.294816e-16,2.294816e-16,37.686745,3.059754e-16,2.649825e-16,0,0,0,0,0,0
3.200996,-1.209889,-10.663027,1.891618e-12,0,0,1.891618e-12,0,2.220446e-16,-1.601118e-17,0,0,0,0,2.231932e-16,-1.148592e-18,1.121709e-16,-40.896809,1.495612e-16,1.491798e-16,0,0,0,0,0,0
3.248286,-1.209889,-10.615389,1.891618e-12,0,0,1.891618e-12,2.220446e-16,0,2.020584e-17,0,0,0,0,2.238683e-16,-1.823733e-18,1.12846e-16,50.15741,1.504614e-16,1.498572e-16,0,0,0,0,0,0
3.295577,-1.209889,-10.560492,1.891618e-12,0,0,1.891618e-12,2.220446e-16,2.220446e-16,-2.031749e-17,0,0,0,0,2.423621e-16,2.017271e-16,2.031749e-17,0,2.708999e-17,1.498773e-16,0,0,0,0,0,0
3.342867,-1.209889,-10.493225,1.891618e-12,0,0,1.891618e-12,-2.220446e-16,2.220446e-16,3.666159e-18,0,0,0,0,2.220749e-16,-2.220749e-16,2.220749e-16,-45.472961,2.960998e-16,2.5643e-16,0,0,0,0,0,0
3.390158,-1.209889,-10.449428,1.891618e-12,0,0,1.891618e-12,-4.440892e-16,-1.110223e-16,4.925166e-17,0,0,0,0,-1.03892e-16,-4.512196e-16,1.736638e-16,-53.237694,2.315517e-16,2.728569e-16,0,0,0,0,0,0
1.451249,-1.25718,-10.20269,1.891618e-12,0,0,1.891618e-12,-5.551115e-16,-2.220446e-16,-2.053571e-16,0,0,0,0,-1.241827e-16,-6.529734e-16,2.643954e-16,-19.52009,3.525272e-16,4.00393e-16,0,0,0,0,0,0
1.49854,-1.25718,-10.281073,1.891618e-12,0,0,1.891618e-12,2.220446e-16,2.220446e-16,5.622043e-17,0,0,0,0,2.78265e-16,1.658242e-16,5.622043e-17,90,7.496058e-17,1.616388e-16,0,0,0,0,0,0
1.54583,-1.25718,-10.377163,1.891618e-12,0,0,1.891618e-12,-2.220446e-16,0,1.955099e-17,0,0,0,0,1.708319e-18,-2.237529e-16,1.127306e-16,-49.993687,1.503075e-16,1.497413e-16,0,0,0,0,0,0
1.593121,-1.25718,-10.459164,1.891618e-12,0,0,1.891618e-12,-1.110223e-16,-1.110223e-16,-2.470309e-17,0,0,0,0,-8.631922e-17,-1.357254e-16,2.470309e-17,0,3.293745e-17,7.932123e-17,0,0,0,0,0,0
1.640411,-1.25718,-10.5257,1.891618e-12,0,0,1.891618e-12,0,-2.220446e-16,1.818053e-17,0,0,0,0,1.478735e-18,-2.235233e-16,1.12501e-16,49.649982,1.500014e-16,1.495109e-16,0,0,0,0,0,0
1.687701,-1.25718,-10.580095,1.891618e-12,0,0,1.891618e-12,0,-2.220446e-16,5.377188e-18,0,0,0,0,1.301415e-19,-2.221748e-16,1.111524e-16,46.386433,1.482033e-16,1.481599e-16,0,0,0,0,0,0
1.734992,-1.25718,-10.62494,1.891618e-12,0,0,1.891618e-12,0,0,-1.853867e-17,0,0,0,0,1.853867e-17,-1.853867e-17,1.853867e-17,0,2.471822e-17,2.140661e-17,0,0,0,0,0,0
1.782282,-1.25718,-10.663938,1.891618e-12,0,0,1.891618e-12,2.220446e-16,0,-5.671009e-18,0,0,0,0,2.221893e-16,-1.44743e-19,1.11167e-16,43.537937,1.482227e-16,1.481745e-16,0,0,0,0,0,0
1.829573,-1.25718,-10.700841,1.891618e-12,0,0,1.891618e-12,-2.220446e-16,-1.110223e-16,1.659052e-17,0,0,0,0,-1.085961e-16,-2.244708e-16,5.793732e-17,-53.31987,7.724976e-17,1.29621e-16,0,0,0,0,0,0
1.876863,-1.25718,-10.736724,1.891618e-12,0,0,1.891618e-12,-2.220446e-16,0,2.282556e-17,0,0,0,0,2.322118e-18,-2.243667e-16,1.133444e-16,-50.808903,1.511259e-16,1.503578e-16,0,0,0,0,0,0
1.924154,-1.25718,-10.771311,1.891618e-12,0,0,1.891618e-12,0,-1.110223e-16,-1.650905e-18,0,0,0,0,2.454358e-20,-1.110468e-16,5.55357e-17,44.148262,7.404759e-17,7.403941e-17,0,0,0,0,0,0
1.971444,-1.25718,-10.803337,1.891618e-12,0,0,1.891618e-12,2.220446e-16,0,1.199099e-17,0,0,0,0,2.226903e-16,-6.456675e-19,1.11668e-16,48.082176,1.488906e-16,1.486759e-16,0,0,0,0,0,0
2.018735,-1.25718,-10.832016,1.891618e-12,0,0,1.891618e-12,-2.220446e-16,0,-2.943009e-18,0,0,0,0,3.900018e-20,-2.220836e-16,1.110613e-16,-44.240772,1.480817e-16,1.480687e-16,0,0,0,0,0,0
2.066025,-1.25718,-10.857513,1.891618e-12,0,0,1.891618e-12,-2.220446e-16,0,1.37114e-17,0,0,0,0,8.434836e-19,-2.228881e-16,1.118658e-16,-48.520226,1.491544e-16,1.48874e-16,0,0,0,0,0,0
2.113316,-1.25718,-10.879446,1.891618e-12,0,0,1.891618e-12,0,-1.110223e-16,1.057186e-17,0,0,0,0,9.977166e-19,-1.1202e-16,5.650887e-17,50.391308,7.534516e-17,7.50148e-17,0,0,0,0,0,0
2.160606,-1.25718,-10.896798,1.891618e-12,0,0,1.891618e-12,2.220446e-16,-1.110223e-16,1.743648e-19,0,0,0,0,2.220447e-16,-1.110224e-16,1.665335e-16,45.029995,2.220447e-16,1.95825e-16,0,0,0,0,0,0
2.207896,-1.25718,-10.910211,1.891618e-12,0,0,1.891618e-12,-1.110223e-16,-4.440892e-16,-2.176812e-17,0,0,0,0,-1.096056e-16,-4.455059e-16,1.679501e-16,41.276455,2.239335e-16,2.680455e-16,0,0,0,0,0,0
2.255187,-1.25718,-10.920719,1.891618e-12,0,0,1.891618e-12,2.220446e-16,0,-4.174787e-18,0,0,0,0,2.221231e-16,-7.846481e-20,1.111008e-16,43.923256,1.481344e-16,1.481082e-16,0,0,0,0,0,0
2.302477,-1.25718,-10.929877,1.891618e-12,0,0,1.891618e-12,2.220446e-16,2.220446e-16,4.083515e-17,0,0,0,0,2.628797e-16,1.812095e-16,4.083515e-17,90,5.444686e-17,1.553581e-16,0,0,0,0,0,0
2.349768,-1.25718,-10.937731,1.891618e-12,0,0,1.891618e-12,0,-1.110223e-16,6.209295e-18,0,0,0,0,3.461962e-19,-1.113685e-16,5.585735e-17,48.191193,7.447646e-17,7.436133e-17,0,0,0,0,0,0
2.397058,-1.25718,-10.942538,1.891618e-12,0,0,1.891618e-12,2.220446e-16,2.220446e-16,-1.272578e-18,0,0,0,0,2.233172e-16,2.20772e-16,1.272578e-18,0,1.696771e-18,1.48037e-16,0,0,0,0,0,0
2.444349,-1.25718,-10.942296,1.891618e-12,0,0,1.891618e-12,2.220446e-16,-1.110223e-16,-3.920503e-17,0,0,0,0,2.265972e-16,-1.155749e-16,1.71086e-16,38.376369,2.281147e-16,2.009895e-16,0,0,0,0,0,0
2.491639,-1.25718,-10.93794,1.891618e-12,0,0,1.891618e-12,-1.110223e-16,-2.220446e-16,-1.487194e-17,0,0,0,0,-1.090647e-16,-2.240023e-16,5.74688e-17,37.501072,7.662506e-17,1.293426e-16,0,0,0,0,0,0
2.53893,-1.25718,-10.931408,1.891618e-12,0,0,1.891618e-12,0,2.220446e-16,-2.378747e-17,0,0,0,0,2.245643e-16,-2.519739e-18,1.13542e-16,-38.953369,1.513894e-16,1.505565e-16,0,0,0,0,0,0
2.58622,-1.25718,-10.925108,1.891618e-12,0,0,1.891618e-12,2.220446e-16,0,-1.289051e-17,0,0,0,0,2.227904e-16,-7.458365e-19,1.117681e-16,41.688595,1.490242e-16,1.487762e-16,0,0,0,0,0,0
2.633511,-1.25718,-10.919955,1.891618e-12,0,0,1.891618e-12,0,0,1.29536e-17,0,0,0,0,1.29536e-17,-1.29536e-17,1.29536e-17,90,1.727147e-17,1.495753e-17,0,0,0,0,0,0
2.680801,-1.25718,-10.914817,1.891618e-12,0,0,1.891618e-12,2.220446e-16,2.220446e-16,5.457901e-17,0,0,0,0,2.766236e-16,1.674656e-16,5.457901e-17,90,7.277202e-17,1.60887e-16,0,0,0,0,0,0
2.728091,-1.25718,-10.907618,1.891618e-12,0,0,1.891618e-12,-1.110223e-16,-1.110223e-16,1.689184e-17,0,0,0,0,-9.413046e-17,-1.279141e-16,1.689184e-17,90,2.252245e-17,7.654179e-17,0,0,0,0,0,0
2.775382,-1.25718,-10.896765,1.891618e-12,0,0,1.891618e-12,2.220446e-16,2.220446e-16,3.959527e-17,0,0,0,0,2.616399e-16,1.824493e-16,3.959527e-17,90,5.279369e-17,1.549296e-16,0,0,0,0,0,0
2.822672,-1.25718,-10.882137,1.891618e-12,0,0,1.891618e-12,-1.110223e-16,-1.110223e-16,3.24462e-17,0,0,0,0,-7.85761e-17,-1.434685e-16,3.24462e-17,90,4.326161e-17,8.295707e-17,0,0,0,0,0,0
2.869963,-1.25718,-10.86504,1.891618e-12,0,0,1.891618e-12,2.220446e-16,0,-1.544602e-17,0,0,0,0,2.231139e-16,-1.069317e-18,1.120916e-16,41.039772,1.494555e-16,1.491003e-16,0,0,0,0,0,0
2.917253,-1.25718,-10.846277,1.891618e-12,0,0,1.891618e-12,2.220446e-16,2.220446e-16,3.382908e-17,0,0,0,0,2.558737e-16,1.882155e-16,3.382908e-17,90,4.510544e-17,1.53097e-16,0,0,0,0,0,0
2.964544,-1.25718,-10.825229,1.891618e-12,0,0,1.891618e-12,-1.110223e-16,2.220446e-16,3.035852e-17,0,0,0,0,2.247891e-16,-1.137668e-16,1.69278e-16,-50.165695,2.257039e-16,1.989378e-16,0,0,0,0,0,0
3.011834,-1.25718,-10.800778,1.891618e-12,0,0,1.891618e-12,-2.220446e-16,-1.110223e-16,-1.86898e-17,0,0,0,0,-1.079605e-16,-2.251064e-16,5.8573e-17,-35.696186,7.809733e-17,1.300013e-16,0,0,0,0,0,0
3.059125,-1.25718,-10.772246,1.891618e-12,0,0,1.891618e-12,0,0,-2.990532e-17,0,0,0,0,2.990532e-17,-2.990532e-17,2.990532e-17,0,3.987376e-17,3.453168e-17,0,0,0,0,0,0
3.106415,-1.25718,-10.739992,1.891618e-12,0,0,1.891618e-12,0,2.220446e-16,-3.584504e-17,0,0,0,0,2.276877e-16,-5.643109e-18,1.166654e-16,-36.053314,1.555539e-16,1.537074e-16,0,0,0,0,0,0
3.153705,-1.25718,-10.704289,1.891618e-12,0,0,1.891618e-12,-2.220446e-16,-2.220446e-16,1.612211e-17,0,0,0,0,-2.059225e-16,-2.381667e-16,1.612211e-17,90,2.149615e-17,1.491957e-16,0,0,0,0,0,0
3.200996,-1.25718,-10.663391,1.891618e-12,0,0,1.891618e-12,0,0,3.134937e-17,0,0,0,0,3.134937e-17,-3.134937e-17,3.134937e-17,90,4.179917e-17,3.619914e-17,0,0,0,0,0,0
3.248286,-1.25718,-10.61599,1.891618e-12,0,0,1.891618e-12,0,-2.220446e-16,3.597172e-17,0,0,0,0,5.682095e-18,-2.277267e-16,1.167044e-16,53.976276,1.556059e-16,1.537468e-16,0,0,0,0,0,0
3.295577,-1.25718,-10.561774,1.891618e-12,0,0,1.891618e-12,2.220446e-16,2.220446e-16,-5.897984e-18,0,0,0,0,2.279426e-16,2.161466e-16,5.897984e-18,0,7.863979e-18,1.481863e-16,0,0,0,0,0,0
3.342867,-1.25718,-10.49503,1.891618e-12,0,0,1.891618e-12,2.220446e-16,-1.110223e-16,2.785805e-17,0,0,0,0,2.243586e-16,-1.133363e-16,1.688475e-16,49.74831,2.251299e-16,1.984494e-16,0,0,0,0,0,0
3.390158,-1.25718,-10.45194,1.891618e-12,0,0,1.891618e-12,-1.110223e-16,2.220446e-16,-2.335838e-17,0,0,0,0,2.236748e-16,-1.126525e-16,1.681636e-16,-41.007824,2.242182e-16,1.976737e-16,0,0,0,0,0,0
1.49854,-1.30447,-10.288394,1.891618e-12,0,0,1.891618e-12,-1.110223e-16,2.220446e-16,2.544793e-17,0,0,0,0,2.239777e-16,-1.129554e-16,1.684666e-16,-49.34407,2.246221e-16,1.980173e-16,0,0,0,0,0,0
1.54583,-1.30447,-10.383825,1.891618e-12,0,0,1.891618e-12,-1.110223e-16,-2.220446e-16,3.108388e-17,0,0,0,0,-1.02912e-16,-2.301549e-16,6.36215e-17,59.623482,8.482867e-17,1.331273e-16,0,0,0,0,0,0
1.593121,-1.30447,-10.464977,1.891618e-12,0,0,1.891618e-12,2.220446e-16,0,-1.983515e-18,0,0,0,0,2.220623e-16,-1.771724e-20,1.1104e-16,44.488235,1.480534e-16,1.480474e-16,0,0,0,0,0,0
1.640411,-1.30447,-10.529962,1.891618e-12,0,0,1.891618e-12,0,2.220446e-16,-6.688914e-18,0,0,0,0,2.222459e-16,-2.013156e-19,1.112236e-16,-43.276096,1.482982e-16,1.482311e-16,0,0,0,0,0,0
1.687701,-1.30447,-10.583136,1.891618e-12,0,0,1.891618e-12,0,0,-2.156768e-17,0,0,0,0,2.156768e-17,-2.156768e-17,2.156768e-17,0,2.87569e-17,2.490421e-17,0,0,0,0,0,0
1.734992,-1.30447,-10.627087,1.891618e-12,0,0,1.891618e-12,-2.220446e-16,0,-1.112328e-17,0,0,0,0,5.558274e-19,-2.226004e-16,1.115781e-16,-42.139324,1.487708e-16,1.485859e-16,0,0,0,0,0,0
1.782282,-1.30447,-10.665816,1.891618e-12,0,0,1.891618e-12,0,2.220446e-16,-2.206589e-18,0,0,0,0,2.220665e-16,-2.192601e-20,1.110442e-16,-44.430695,1.48059e-16,1.480517e-16,0,0,0,0,0,0
1.829573,-1.30447,-10.702898,1.891618e-12,0,0,1.891618e-12,-2.220446e-16,-2.220446e-16,-1.365419e-17,0,0,0,0,-2.083904e-16,-2.356988e-16,1.365419e-17,0,1.820559e-17,1.48867e-16,0,0,0,0,0,0
1.876863,-1.30447,-10.738919,1.891618e-12,0,0,1.891618e-12,-2.220446e-16,-1.110223e-16,-9.205163e-19,0,0,0,0,-1.110147e-16,-2.220522e-16,5.551878e-17,-44.52499,7.402504e-17,1.282019e-16,0,0,0,0,0,0
1.924154,-1.30447,-10.773179,1.891618e-12,0,0,1.891618e-12,0,2.220446e-16,1.610638e-17,0,0,0,0,2.232068e-16,-1.162221e-18,1.121845e-16,-49.127254,1.495794e-16,1.491935e-16,0,0,0,0,0,0
1.971444,-1.30447,-10.80439,1.891618e-12,0,0,1.891618e-12,2.220446e-16,-2.220446e-16,-6.089889e-18,0,0,0,0,2.221281e-16,-2.221281e-16,2.221281e-16,44.214489,2.961708e-16,2.564914e-16,0,0,0,0,0,0
2.018735,-1.30447,-10.832103,1.891618e-12,0,0,1.891618e-12,0,-1.110223e-16,-1.67615e-17,0,0,0,0,2.475364e-18,-1.134977e-16,5.798651e-17,36.599197,7.731535e-17,7.650358e-17,0,0,0,0,0,0
2.066025,-1.30447,-10.856952,1.891618e-12,0,0,1.891618e-12,-1.110223e-16,2.220446e-16,1.309958e-17,0,0,0,0,2.22559e-16,-1.115367e-16,1.670479e-16,-47.248825,2.227305e-16,1.964083e-16,0,0,0,0,0,0
2.113316,-1.30447,-10.878651,1.891618e-12,0,0,1.891618e-12,0,2.220446e-16,-4.30491e-17,0,0,0,0,2.300986e-16,-8.054047e-18,1.190764e-16,-34.403053,1.587685e-16,1.56153e-16,0,0,0,0,0,0
2.160606,-1.30447,-10.896585,1.891618e-12,0,0,1.891618e-12,-1.110223e-16,0,4.493183e-18,0,0,0,0,1.815467e-19,-1.112038e-16,5.56927e-17,-47.313774,7.425693e-17,7.419649e-17,0,0,0,0,0,0
2.207896,-1.30447,-10.911159,1.891618e-12,0,0,1.891618e-12,0,-2.220446e-16,-1.18743e-17,0,0,0,0,6.331975e-19,-2.226778e-16,1.116555e-16,41.94759,1.48874e-16,1.486634e-16,0,0,0,0,0,0
2.255187,-1.30447,-10.923092,1.891618e-12,0,0,1.891618e-12,0,-1.110223e-16,-7.527786e-18,0,0,0,0,5.080908e-19,-1.115304e-16,5.601925e-17,41.138657,7.469232e-17,7.452353e-17,0,0,0,0,0,0
2.302477,-1.30447,-10.933283,1.891618e-12,0,0,1.891618e-12,-2.220446e-16,0,1.989536e-17,0,0,0,0,1.768552e-18,-2.238132e-16,1.127909e-16,-50.079826,1.503878e-16,1.498018e-16,0,0,0,0,0,0
2.349768,-1.30447,-10.94127,1.891618e-12,0,0,1.891618e-12,2.220446e-16,2.220446e-16,-1.129887e-17,0,0,0,0,2.333435e-16,2.107457e-16,1.129887e-17,0,1.506516e-17,1.486036e-16,0,0,0,0,0,0
2.397058,-1.30447,-10.944951,1.891618e-12,0,0,1.891618e-12,2.220446e-16,2.220446e-16,2.146579e-17,0,0,0,0,2.435104e-16,2.005788e-16,2.146579e-17,90,2.862105e-17,1.500906e-16,0,0,0,0,0,0
2.444349,-1.30447,-10.943156,1.891618e-12,0,0,1.891618e-12,0,-1.110223e-16,-1.156984e-18,0,0,0,0,1.205583e-20,-1.110344e-16,5.552321e-17,44.402996,7.403094e-17,7.402693e-17,0,0,0,0,0,0
2.491639,-1.30447,-10.937587,1.891618e-12,0,0,1.891618e-12,2.220446e-16,0,-2.916419e-17,0,0,0,0,2.258113e-16,-3.766642e-18,1.147889e-16,37.64082,1.530519e-16,1.51812e-16,0,0,0,0,0,0
2.53893,-1.30447,-10.93089,1.891618e-12,0,0,1.891618e-12,2.220446e-16,-1.110223e-16,-2.201468e-19,0,0,0,0,2.220447e-16,-1.110224e-16,1.665336e-16,44.962128,2.220448e-16,1.958251e-16,0,0,0,0,0,0
2.58622,-1.30447,-10.925212,1.891618e-12,0,0,1.891618e-12,0,4.440892e-16,8.120881e-18,0,0,0,0,4.442377e-16,-1.484537e-19,2.22193e-16,-46.047279,2.962574e-16,2.96208e-16,0,0,0,0,0,0
2.633511,-1.30447,-10.920658,1.891618e-12,0,0,1.891618e-12,2.220446e-16,0,5.133638e-18,0,0,0,0,2.221632e-16,-1.186255e-19,1.111409e-16,46.323727,1.481879e-16,1.481484e-16,0,0,0,0,0,0
2.680801,-1.30447,-10.915348,1.891618e-12,0,0,1.891618e-12,0,2.220446e-16,-4.719532e-17,0,0,0,0,2.316596e-16,-9.614964e-18,1.206373e-16,-33.484882,1.608497e-16,1.577424e-16,0,0,0,0,0,0
2.728091,-1.30447,-10.907314,1.891618e-12,0,0,1.891618e-12,2.220446e-16,-2.220446e-16,-4.628931e-17,0,0,0,0,2.268182e-16,-2.268182e-16,2.268182e-16,39.112144,3.024243e-16,2.619071e-16,0,0,0,0,0,0
2.775382,-1.30447,-10.895729,1.891618e-12,0,0,1.891618e-12,0,-2.220446e-16,4.552068e-17,0,0,0,0,8.969713e-18,-2.310143e-16,1.19992e-16,56.147152,1.599894e-16,1.570848e-16,0,0,0,0,0,0
2.822672,-1.30447,-10.880916,1.891618e-12,0,0,1.891618e-12,2.220446e-16,2.220446e-16,-1.227427e-17,0,0,0,0,2.343189e-16,2.097703e-16,1.227427e-17,0,1.636569e-17,1.487067e-16,0,0,0,0,0,0
2.869963,-1.30447,-10.863807,1.891618e-12,0,0,1.891618e-12,0,2.220446e-16,-8.298911e-19,0,0,0,0,2.220477e-16,-3.101672e-21,1.110254e-16,-44.785862,1.480339e-16,1.480328e-16,0,0,0,0,0,0
2.917253,-1.30447,-10.844764,1.891618e-12,0,0,1.891618e-12,2.220446e-16,2.220446e-16,2.059587e-17,0,0,0,0,2.426405e-16,2.014487e-16,2.059587e-17,90,2.746116e-17,1.499279e-16,0,0,0,0,0,0
2.964544,-1.30447,-10.823216,1.891618e-12,0,0,1.891618e-12,-2.220446e-16,-2.220446e-16,2.2299e-17,0,0,0,0,-1.997456e-16,-2.443436e-16,2.2299e-17,90,2.9732e-17,1.502524e-16,0,0,0,0,0,0
3.011834,-1.30447,-10.798387,1.891618e-12,0,0,1.891618e-12,2.220446e-16,0,2.882018e-17,0,0,0,0,2.257243e-16,-3.679722e-18,1.14702e-16,52.276081,1.52936e-16,1.517243e-16,0,0,0,0,0,0
3.059125,-1.30447,-10.769996,1.891618e-12,0,0,1.891618e-12,0,2.220446e-16,-4.028324e-17,0,0,0,0,2.291269e-16,-7.082275e-18,1.181046e-16,-35.028622,1.574728e-16,1.551659e-16,0,0,0,0,0,0
3.106415,-1.30447,-10.73848,1.891618e-12,0,0,1.891618e-12,-2.220446e-16,2.220446e-16,1.310129e-17,0,0,0,0,2.224308e-16,-2.224308e-16,2.224308e-16,-46.688354,2.965744e-16,2.568409e-16,0,0,0,0,0,0
3.153705,-1.30447,-10.703799,1.891618e-12,0,0,1.891618e-12,0,-2.220446e-16,2.256939e-17,0,0,0,0,2.270809e-18,-2.243154e-16,1.132931e-16,50.745453,1.510575e-16,1.503063e-16,0,0,0,0,0,0
3.200996,-1.30447,-10.663963,1.891618e-12,0,0,1.891618e-12,0,-2.220446e-16,1.733156e-17,0,0,0,0,1.344662e-18,-2.233893e-16,1.12367e-16,49.436382,1.498226e-16,1.493764e-16,0,0,0,0,0,0
3.248286,-1.30447,-10.617421,1.891618e-12,0,0,1.891618e-12,0,2.220446e-16,-2.675327e-17,0,0,0,0,2.252225e-16,-3.177912e-18,1.142002e-16,-38.225811,1.52267e-16,1.512188e-16,0,0,0,0,0,0
3.295577,-1.30447,-10.563957,1.891618e-12,0,0,1.891618e-12,-3.330669e-16,0,-4.664721e-17,0,0,0,0,6.409754e-18,-3.394767e-16,1.729432e-16,-37.176033,2.30591e-16,2.284843e-16,0,0,0,0,0,0
3.342867,-1.30447,-10.498825,1.891618e-12,0,0,1.891618e-12,-3.330669e-16,-1.110223e-16,2.865437e-17,0,0,0,0,-1.073841e-16,-3.367051e-16,1.146605e-16,-52.235985,1.528806e-16,1.986005e-16,0,0,0,0,0,0
3.390158,-1.30447,-10.457392,1.891618e-12,0,0,1.891618e-12,0,-1.110223e-16,2.24378e-17,0,0,0,0,4.36324e-18,-1.153855e-16,5.987439e-17,56.004364,7.983252e-17,7.841858e-17,0,0,0,0,0,0
1.451249,-1.351761,-10.180915,1.891618e-12,0,0,1.891618e-12,2.220446e-16,0,5.288686e-17,0,0,0,0,2.339978e-16,-1.195319e-17,1.229755e-16,57.735691,1.639673e-16,1.601317e-16,0,0,0,0,0,0
1.49854,-1.351761,-10.290932,1.891618e-12,0,0,1.891618e-12,2.220446e-16,-1.110223e-16,-4.248736e-17,0,0,0,0,2.27379e-16,-1.163567e-16,1.718679e-16,37.843781,2.291572e-16,2.01877e-16,0,0,0,0,0,0
1.54583,-1.351761,-10.387461,1.891618e-12,0,0,1.891618e-12,0,-1.110223e-16,-4.92452e-17,0,0,0,0,1.869516e-17,-1.297175e-16,7.420631e-17,24.211521,9.894175e-17,9.333623e-17,0,0,0,0,0,0
1.593121,-1.351761,-10.468037,1.891618e-12,0,0,1.891618e-12,-1.110223e-16,2.220446e-16,-1.04897e-18,0,0,0,0,2.220479e-16,-1.110256e-16,1.665368e-16,-44.819553,2.22049e-16,1.958287e-16,0,0,0,0,0,0
1.640411,-1.351761,-10.532472,1.891618e-12,0,0,1.891618e-12,2.220446e-16,-1.110223e-16,4.363792e-17,0,0,0,0,2.276671e-16,-1.166448e-16,1.721559e-16,52.34174,2.295412e-16,2.022039e-16,0,0,0,0,0,0
1.687701,-1.351761,-10.585668,1.891618e-12,0,0,1.891618e-12,2.220446e-16,2.220446e-16,-1.724716e-17,0,0,0,0,2.392918e-16,2.047974e-16,1.724716e-17,0,2.299622e-17,1.493634e-16,0,0,0,0,0,0
1.734992,-1.351761,-10.629996,1.891618e-12,0,0,1.891618e-12,0,0,-1.275025e-17,0,0,0,0,1.275025e-17,-1.275025e-17,1.275025e-17,0,1.700033e-17,1.472272e-17,0,0,0,0,0,0
1.782282,-1.351761,-10.669458,1.891618e-12,0,0,1.891618e-12,2.220446e-16,-2.220446e-16,3.708653e-17,0,0,0,0,2.251204e-16,-2.251204e-16,2.251204e-16,49.741089,3.001606e-16,2.599467e-16,0,0,0,0,0,0
1.829573,-1.351761,-10.707185,1.891618e-12,0,0,1.891618e-12,0,2.220446e-16,-2.648474e-17,0,0,0,0,2.251599e-16,-3.115303e-18,1.141376e-16,-38.291332,1.521835e-16,1.511557e-16,0,0,0,0,0,0
1.876863,-1.351761,-10.742969,1.891618e-12,0,0,1.891618e-12,-2.220446e-16,0,3.44848e-18,0,0,0,0,5.354395e-20,-2.220982e-16,1.110759e-16,-45.889549,1.481011e-16,1.480833e-16,0,0,0,0,0,0
1.924154,-1.351761,-10.776329,1.891618e-12,0,0,1.891618e-12,2.220446e-16,0,9.777334e-18,0,0,0,0,2.224743e-16,-4.296958e-19,1.11452e-16,47.516426,1.486027e-16,1.484596e-16,0,0,0,0,0,0
1.971444,-1.351761,-10.806313,1.891618e-12,0,0,1.891618e-12,2.220446e-16,0,2.854833e-17,0,0,0,0,2.256563e-16,-3.611718e-18,1.14634e-16,52.210323,1.528454e-16,1.516558e-16,0,0,0,0,0,0
2.018735,-1.351761,-10.83301,1.891618e-12,0,0,1.891618e-12,-1.110223e-16,-2.220446e-16,6.894762e-18,0,0,0,0,-1.105958e-16,-2.224711e-16,5.593769e-17,48.540081,7.458359e-17,1.284445e-16,0,0,0,0,0,0
2.066025,-1.351761,-10.857283,1.891618e-12,0,0,1.891618e-12,0,0,4.345335e-17,0,0,0,0,4.345335e-17,-4.345335e-17,4.345335e-17,90,5.79378e-17,5.01756e-17,0,0,0,0,0,0
2.113316,-1.351761,-10.878985,1.891618e-12,0,0,1.891618e-12,0,0,3.779311e-17,0,0,0,0,3.779311e-17,-3.779311e-17,3.779311e-17,90,5.039082e-17,4.363973e-17,0,0,0,0,0,0
2.160606,-1.351761,-10.897778,1.891618e-12,0,0,1.891618e-12,2.220446e-16,0,1.404512e-17,0,0,0,0,2.229295e-16,-8.848777e-19,1.119072e-16,48.605015,1.492096e-16,1.489155e-16,0,0,0,0,0,0
2.207896,-1.351761,-10.914041,1.891618e-12,0,0,1.891618e-12,0,-2.220446e-16,-3.780873e-17,0,0,0,0,6.261334e-18,-2.28306e-16,1.172836e-16,35.596844,1.563782e-16,1.543334e-16,0,0,0,0,0,0
2.255187,-1.351761,-10.927544,1.891618e-12,0,0,1.891618e-12,-2.220446e-16,0,3.06376e-17,0,0,0,0,4.149803e-18,-2.261944e-16,1.151721e-16,-52.713661,1.535628e-16,1.521984e-16,0,0,0,0,0,0
2.302477,-1.351761,-10.938819,1.891618e-12,0,0,1.891618e-12,2.220446e-16,2.220446e-16,-1.442324e-17,0,0,0,0,2.364679e-16,2.076214e-16,1.442324e-17,0,1.923099e-17,1.489637e-16,0,0,0,0,0,0
2.349768,-1.351761,-10.946639,1.891618e-12,0,0,1.891618e-12,-1.110223e-16,2.220446e-16,1.245627e-17,0,0,0,0,2.225098e-16,-1.114875e-16,1.669986e-16,-47.138805,2.226649e-16,1.963524e-16,0,0,0,0,0,0
2.397058,-1.351761,-10.949318,1.891618e-12,0,0,1.891618e-12,-2.220446e-16,-1.110223e-16,4.357752e-18,0,0,0,0,-1.108515e-16,-2.222154e-16,5.568193e-17,-47.244324,7.424258e-17,1.282962e-16,0,0,0,0,0,0
2.444349,-1.351761,-10.946622,1.891618e-12,0,0,1.891618e-12,2.220446e-16,0,-8.255315e-18,0,0,0,0,2.223511e-16,-3.064982e-19,1.113288e-16,42.873734,1.484384e-16,1.483363e-16,0,0,0,0,0,0
2.491639,-1.351761,-10.940686,1.891618e-12,0,0,1.891618e-12,0,0,4.94262e-18,0,0,0,0,4.94262e-18,-4.94262e-18,4.94262e-18,90,6.59016e-18,5.707246e-18,0,0,0,0,0,0
2.53893,-1.351761,-10.934262,1.891618e-12,0,0,1.891618e-12,-1.110223e-16,2.220446e-16,-1.316539e-18,0,0,0,0,2.220498e-16,-1.110275e-16,1.665387e-16,-44.773529,2.220515e-16,1.958308e-16,0,0,0,0,0,0
2.58622,-1.351761,-10.929301,1.891618e-12,0,0,1.891618e-12,4.440892e-16,0,-7.642241e-19,0,0,0,0,4.440905e-16,-1.315134e-21,2.220459e-16,44.901402,2.960612e-16,2.960608e-16,0,0,0,0,0,0
2.633511,-1.351761,-10.925065,1.891618e-12,0,0,1.891618e-12,-1.110223e-16,-2.220446e-16,7.136546e-18,0,0,0,0,-1.105654e-16,-2.225015e-16,5.596801e-17,48.662899,7.462401e-17,1.284621e-16,0,0,0,0,0,0
2.680801,-1.351761,-10.919194,1.891618e-12,0,0,1.891618e-12,2.220446e-16,-1.110223e-16,-1.081769e-17,0,0,0,0,2.223956e-16,-1.113733e-16,1.668844e-16,43.141697,2.225126e-16,1.962229e-16,0,0,0,0,0,0
2.728091,-1.351761,-10.909912,1.891618e-12,0,0,1.891618e-12,0,0,1.570348e-17,0,0,0,0,1.570348e-17,-1.570348e-17,1.570348e-17,90,2.093797e-17,1.813281e-17,0,0,0,0,0,0
2.775382,-1.351761,-10.897022,1.891618e-12,0,0,1.891618e-12,0,2.220446e-16,1.207685e-17,0,0,0,0,2.226995e-16,-6.5492e-19,1.116772e-16,-48.104073,1.48903e-16,1.486851e-16,0,0,0,0,0,0
2.822672,-1.351761,-10.881422,1.891618e-12,0,0,1.891618e-12,-2.220446e-16,-1.110223e-16,3.217163e-17,0,0,0,0,-1.023735e-16,-2.306934e-16,6.415997e-17,-60.047272,8.554663e-17,1.334714e-16,0,0,0,0,0,0
2.869963,-1.351761,-10.863978,1.891618e-12,0,0,1.891618e-12,-4.440892e-16,2.220446e-16,-2.441052e-17,0,0,0,0,2.229379e-16,-4.449825e-16,3.339602e-16,-42.90414,4.452803e-16,3.926628e-16,0,0,0,0,0,0
2.917253,-1.351761,-10.844606,1.891618e-12,0,0,1.891618e-12,0,2.220446e-16,-4.492949e-18,0,0,0,0,2.221355e-16,-9.087512e-20,1.111132e-16,-43.841286,1.481509e-16,1.481206e-16,0,0,0,0,0,0
2.964544,-1.351761,-10.822502,1.891618e-12,0,0,1.891618e-12,-3.330669e-16,0,1.719512e-17,0,0,0,0,8.853723e-19,-3.339523e-16,1.674188e-16,-47.94754,2.232251e-16,2.229306e-16,0,0,0,0,0,0
3.011834,-1.351761,-10.79724,1.891618e-12,0,0,1.891618e-12,-2.220446e-16,0,8.155826e-18,0,0,0,0,2.991651e-19,-2.223438e-16,1.113215e-16,-47.100735,1.484286e-16,1.48329e-16,0,0,0,0,0,0
3.059125,-1.351761,-10.768793,1.891618e-12,0,0,1.891618e-12,0,0,2.790519e-19,0,0,0,0,2.790519e-19,-2.790519e-19,2.790519e-19,90,3.720691e-19,3.222213e-19,0,0,0,0,0,0
3.106415,-1.351761,-10.73762,1.891618e-12,0,0,1.891618e-12,-4.440892e-16,0,1.215771e-17,0,0,0,0,3.325894e-19,-4.444218e-16,2.223772e-16,-46.567005,2.965029e-16,2.963921e-16,0,0,0,0,0,0
3.153705,-1.351761,-10.703562,1.891618e-12,0,0,1.891618e-12,-2.220446e-16,0,1.875538e-17,0,0,0,0,1.573061e-18,-2.236177e-16,1.125954e-16,-49.794323,1.501272e-16,1.496056e-16,0,0,0,0,0,0
3.200996,-1.351761,-10.664992,1.891618e-12,0,0,1.891618e-12,-2.220446e-16,0,1.829427e-17,0,0,0,0,1.497171e-18,-2.235418e-16,1.125195e-16,-49.678558,1.50026e-16,1.495294e-16,0,0,0,0,0,0
3.248286,-1.351761,-10.619755,1.891618e-12,0,0,1.891618e-12,-2.220446e-16,0,1.268921e-17,0,0,0,0,7.227993e-19,-2.227674e-16,1.117451e-16,-48.260143,1.489935e-16,1.487531e-16,0,0,0,0,0,0
3.295577,-1.351761,-10.566944,1.891618e-12,0,0,1.891618e-12,2.220446e-16,0,-4.083628e-17,0,0,0,0,2.293166e-16,-7.272047e-18,1.182943e-16,34.902721,1.577258e-16,1.553585e-16,0,0,0,0,0,0
3.342867,-1.351761,-10.503706,1.891618e-12,0,0,1.891618e-12,2.220446e-16,0,-3.973668e-18,0,0,0,0,2.221157e-16,-7.108925e-20,1.110934e-16,43.975082,1.481245e-16,1.481008e-16,0,0,0,0,0,0
3.390158,-1.351761,-10.464235,1.891618e-12,0,0,1.891618e-12,2.220446e-16,0,4.755378e-17,0,0,0,0,2.318003e-16,-9.755651e-18,1.20778e-16,56.593365,1.610373e-16,1.578859e-16,0,0,0,0,0,0
1.451249,-1.399051,-10.185779,1.891618e-12,0,0,1.891618e-12,-3.330669e-16,2.220446e-16,5.204097e-17,0,0,0,0,2.268812e-16,-3.379035e-16,2.823924e-16,-50.309753,3.765232e-16,3.28172e-16,0,0,0,0,0,0
1.49854,-1.399051,-10.289724,1.891618e-12,0,0,1.891618e-12,0,4.440892e-16,-7.077298e-17,0,0,0,0,4.550953e-16,-1.100608e-17,2.330507e-16,-36.160595,3.107342e-16,3.071313e-16,0,0,0,0,0,0
1.54583,-1.399051,-10.385381,1.891618e-12,0,0,1.891618e-12,-1.110223e-16,2.220446e-16,-2.881352e-17,0,0,0,0,2.245189e-16,-1.134966e-16,1.690077e-16,-40.091949,2.253436e-16,1.986312e-16,0,0,0,0,0,0
1.593121,-1.399051,-10.465947,1.891618e-12,0,0,1.891618e-12,2.220446e-16,0,3.66722e-17,0,0,0,0,2.279445e-16,-5.899903e-18,1.169222e-16,54.139553,1.558963e-16,1.539673e-16,0,0,0,0,0,0
1.640411,-1.399051,-10.53224,1.891618e-12,0,0,1.891618e-12,0,0,1.28707e-18,0,0,0,0,1.28707e-18,-1.28707e-18,1.28707e-18,90,1.716094e-18,1.486181e-18,0,0,0,0,0,0
1.687701,-1.399051,-10.586697,1.891618e-12,0,0,1.891618e-12,2.220446e-16,2.220446e-16,1.759445e-17,0,0,0,0,2.396391e-16,2.044502e-16,1.759445e-17,90,2.345927e-17,1.494174e-16,0,0,0,0,0,0
1.734992,-1.399051,-10.632352,1.891618e-12,0,0,1.891618e-12,-5.551115e-16,-2.220446e-16,2.612299e-18,0,0,0,0,-2.220241e-16,-5.55132e-16,1.665539e-16,-45.449345,2.220719e-16,3.226374e-16,0,0,0,0,0,0
1.782282,-1.399051,-10.673047,1.891618e-12,0,0,1.891618e-12,2.220446e-16,0,-5.298965e-18,0,0,0,0,2.22171e-16,-1.263848e-19,1.111487e-16,43.633705,1.481982e-16,1.481561e-16,0,0,0,0,0,0
1.829573,-1.399051,-10.711434,1.891618e-12,0,0,1.891618e-12,-4.440892e-16,2.220446e-16,-1.44493e-17,0,0,0,0,2.223579e-16,-4.444025e-16,3.333802e-16,-43.757961,4.445069e-16,3.920051e-16,0,0,0,0,0,0
1.876863,-1.399051,-10.746987,1.891618e-12,0,0,1.891618e-12,0,-1.110223e-16,1.354457e-17,0,0,0,0,1.628531e-18,-1.126508e-16,5.713968e-17,51.856045,7.618625e-17,7.564924e-17,0,0,0,0,0,0
1.924154,-1.399051,-10.77969,1.891618e-12,0,0,1.891618e-12,2.220446e-16,0,1.164857e-17,0,0,0,0,2.22654e-16,-6.094177e-19,1.116317e-16,47.994808,1.488423e-16,1.486396e-16,0,0,0,0,0,0
1.971444,-1.399051,-10.808599,1.891618e-12,0,0,1.891618e-12,0,-1.110223e-16,-2.968818e-17,0,0,0,0,7.440227e-18,-1.184625e-16,6.295138e-17,30.930737,8.393517e-17,8.156829e-17,0,0,0,0,0,0
2.018735,-1.399051,-10.834638,1.891618e-12,0,0,1.891618e-12,0,-1.110223e-16,3.616246e-17,0,0,0,0,1.073997e-17,-1.217623e-16,6.625113e-17,61.541016,8.833483e-17,8.498136e-17,0,0,0,0,0,0
2.066025,-1.399051,-10.858593,1.891618e-12,0,0,1.891618e-12,0,-2.220446e-16,1.015879e-17,0,0,0,0,4.638072e-19,-2.225084e-16,1.114861e-16,47.614067,1.486481e-16,1.484938e-16,0,0,0,0,0,0
2.113316,-1.399051,-10.880698,1.891618e-12,0,0,1.891618e-12,2.220446e-16,-1.110223e-16,-2.86493e-19,0,0,0,0,2.220448e-16,-1.110226e-16,1.665337e-16,44.950718,2.220449e-16,1.958252e-16,0,0,0,0,0,0
2.160606,-1.399051,-10.900649,1.891618e-12,0,0,1.891618e-12,2.220446e-16,2.220446e-16,2.772922e-17,0,0,0,0,2.497738e-16,1.943154e-16,2.772922e-17,90,3.697229e-17,1.51453e-16,0,0,0,0,0,0
2.207896,-1.399051,-10.918466,1.891618e-12,0,0,1.891618e-12,2.220446e-16,-1.110223e-16,-1.599634e-17,0,0,0,0,2.228111e-16,-1.117888e-16,1.673e-16,42.256649,2.230666e-16,1.966941e-16,0,0,0,0,0,0
2.255187,-1.399051,-10.933025,1.891618e-12,0,0,1.891618e-12,-1.110223e-16,0,1.312532e-17,0,0,0,0,1.530605e-18,-1.125529e-16,5.704175e-17,-51.651485,7.605568e-17,7.555064e-17,0,0,0,0,0,0
2.302477,-1.399051,-10.944799,1.891618e-12,0,0,1.891618e-12,0,2.220446e-16,1.781632e-17,0,0,0,0,2.234651e-16,-1.420452e-18,1.124428e-16,-49.558411,1.499237e-16,1.494524e-16,0,0,0,0,0,0
2.349768,-1.399051,-10.952303,1.891618e-12,0,0,1.891618e-12,-2.220446e-16,0,5.207764e-17,0,0,0,0,1.160735e-17,-2.336519e-16,1.226297e-16,-57.565022,1.635062e-16,1.597777e-16,0,0,0,0,0,0
2.397058,-1.399051,-10.954458,1.891618e-12,0,0,1.891618e-12,0,-1.110223e-16,-7.347028e-18,0,0,0,0,4.840873e-19,-1.115064e-16,5.599524e-17,41.230297,7.466032e-17,7.449948e-17,0,0,0,0,0,0
2.444349,-1.399051,-10.951578,1.891618e-12,0,0,1.891618e-12,-2.220446e-16,-1.110223e-16,5.613771e-18,0,0,0,0,-1.107392e-16,-2.223278e-16,5.579429e-17,-47.887306,7.439238e-17,1.283613e-16,0,0,0,0,0,0
2.491639,-1.399051,-10.946215,1.891618e-12,0,0,1.891618e-12,-1.110223e-16,2.220446e-16,3.52236e-17,0,0,0,0,2.257289e-16,-1.147066e-16,1.702178e-16,-50.971325,2.269571e-16,2.000042e-16,0,0,0,0,0,0
2.53893,-1.399051,-10.940847,1.891618e-12,0,0,1.891618e-12,0,-1.110223e-16,3.847974e-17,0,0,0,0,1.203275e-17,-1.230551e-16,6.75439e-17,62.364643,9.005853e-17,8.63276e-17,0,0,0,0,0,0
2.58622,-1.399051,-10.936851,1.891618e-12,0,0,1.891618e-12,-1.110223e-16,2.220446e-16,-8.794707e-19,0,0,0,0,2.220469e-16,-1.110246e-16,1.665358e-16,-44.848709,2.220477e-16,1.958276e-16,0,0,0,0,0,0
2.633511,-1.399051,-10.932924,1.891618e-12,0,0,1.891618e-12,-1.110223e-16,0,1.54158e-17,0,0,0,0,2.100782e-18,-1.131231e-16,5.761193e-17,-52.760159,7.681591e-17,7.612531e-17,0,0,0,0,0,0
2.680801,-1.399051,-10.926223,1.891618e-12,0,0,1.891618e-12,-1.110223e-16,-1.110223e-16,-5.140574e-18,0,0,0,0,-1.058817e-16,-1.161629e-16,5.140574e-18,0,6.854098e-18,7.425251e-17,0,0,0,0,0,0
2.728091,-1.399051,-10.915403,1.891618e-12,0,0,1.891618e-12,-2.220446e-16,2.220446e-16,-2.293045e-17,0,0,0,0,2.232255e-16,-2.232255e-16,2.232255e-16,-42.051994,2.97634e-16,2.577586e-16,0,0,0,0,0,0
2.775382,-1.399051,-10.901139,1.891618e-12,0,0,1.891618e-12,-1.110223e-16,2.220446e-16,2.44733e-17,0,0,0,0,2.238333e-16,-1.12811e-16,1.683221e-16,-49.180096,2.244295e-16,1.978535e-16,0,0,0,0,0,0
2.822672,-1.399051,-10.884673,1.891618e-12,0,0,1.891618e-12,0,-4.440892e-16,-2.924932e-17,0,0,0,0,1.918181e-18,-4.460074e-16,2.239628e-16,41.247894,2.98617e-16,2.979797e-16,0,0,0,0,0,0
2.869963,-1.399051,-10.866753,1.891618e-12,0,0,1.891618e-12,-1.110223e-16,-2.220446e-16,-4.13267e-18,0,0,0,0,-1.108687e-16,-2.221982e-16,5.566478e-17,42.871162,7.421969e-17,1.282863e-16,0,0,0,0,0,0
2.917253,-1.399051,-10.846989,1.891618e-12,0,0,1.891618e-12,-1.110223e-16,2.220446e-16,2.110329e-17,0,0,0,0,2.233764e-16,-1.123541e-16,1.678652e-16,-48.611042,2.238203e-16,1.973353e-16,0,0,0,0,0,0
2.964544,-1.399051,-10.824248,1.891618e-12,0,0,1.891618e-12,0,2.220446e-16,1.412664e-17,0,0,0,0,2.229397e-16,-8.951383e-19,1.119174e-16,-48.625713,1.492233e-16,1.489258e-16,0,0,0,0,0,0
3.011834,-1.399051,-10.798419,1.891618e-12,0,0,1.891618e-12,2.220446e-16,-2.220446e-16,4.547928e-17,0,0,0,0,2.266543e-16,-2.266543e-16,2.266543e-16,50.787628,3.022057e-16,2.617178e-16,0,0,0,0,0,0
3.059125,-1.399051,-10.769711,1.891618e-12,0,0,1.891618e-12,-1.110223e-16,0,-8.040834e-18,0,0,0,0,5.793375e-19,-1.116016e-16,5.609049e-17,-40.878994,7.478732e-17,7.459496e-17,0,0,0,0,0,0
3.106415,-1.399051,-10.738421,1.891618e-12,0,0,1.891618e-12,2.220446e-16,-1.110223e-16,1.058665e-17,0,0,0,0,2.223808e-16,-1.113585e-16,1.668696e-16,46.818718,2.224928e-16,1.962061e-16,0,0,0,0,0,0
3.153705,-1.399051,-10.704321,1.891618e-12,0,0,1.891618e-12,0,-1.110223e-16,-1.308243e-17,0,0,0,0,1.520751e-18,-1.125431e-16,5.70319e-17,38.36948,7.604254e-17,7.554072e-17,0,0,0,0,0,0
3.200996,-1.399051,-10.665996,1.891618e-12,0,0,1.891618e-12,0,2.220446e-16,1.959245e-17,0,0,0,0,2.237601e-16,-1.715516e-18,1.127378e-16,-50.004059,1.503171e-16,1.497485e-16,0,0,0,0,0,0
3.248286,-1.399051,-10.621058,1.891618e-12,0,0,1.891618e-12,2.220446e-16,2.220446e-16,5.062062e-18,0,0,0,0,2.271067e-16,2.169825e-16,5.062062e-18,90,6.749416e-18,1.481451e-16,0,0,0,0,0,0
3.295577,-1.399051,-10.568819,1.891618e-12,0,0,1.891618e-12,0,-1.110223e-16,2.237938e-17,0,0,0,0,4.341372e-18,-1.153637e-16,5.985253e-17,55.978439,7.980336e-17,7.839632e-17,0,0,0,0,0,0
3.342867,-1.399051,-10.506451,1.891618e-12,0,0,1.891618e-12,0,0,1.791957e-17,0,0,0,0,1.791957e-17,-1.791957e-17,1.791957e-17,90,2.389276e-17,2.069174e-17,0,0,0,0,0,0
3.390158,-1.399051,-10.468483,1.891618e-12,0,0,1.891618e-12,-1.110223e-16,0,5.814706e-17,0,0,0,0,2.487895e-17,-1.359013e-16,8.03901e-17,-68.164268,1.071868e-16,9.993152e-17,0,0,0,0,0,0
1.451249,-1.446342,-10.179678,1.891618e-12,0,0,1.891618e-12,2.220446e-16,0,-1.984804e-17,0,0,0,0,2.238048e-16,-1.760216e-18,1.127825e-16,39.932007,1.503767e-16,1.497934e-16,0,0,0,0,0,0
1.49854,-1.446342,-10.284125,1.891618e-12,0,0,1.891618e-12,2.220446e-16,-4.440892e-16,-9.861921e-18,0,0,0,0,2.221906e-16,-4.442352e-16,3.332129e-16,44.152,4.442838e-16,3.918154e-16,0,0,0,0,0,0
1.54583,-1.446342,-10.381406,1.891618e-12,0,0,1.891618e-12,-1.110223e-16,0,5.041876e-17,0,0,0,0,1.947911e-17,-1.305014e-16,7.499026e-17,-66.123863,9.998702e-17,9.416795e-17,0,0,0,0,0,0
1.593121,-1.446342,-10.463672,1.891618e-12,0,0,1.891618e-12,2.220446e-16,2.220446e-16,8.576335e-18,0,0,0,0,2.306209e-16,2.134683e-16,8.576335e-18,90,1.143511e-17,1.483606e-16,0,0,0,0,0,0
1.640411,-1.446342,-10.531176,1.891618e-12,0,0,1.891618e-12,0,-1.110223e-16,-2.065783e-17,0,0,0,0,3.719196e-18,-1.147415e-16,5.923035e-17,34.793915,7.89738e-17,7.776372e-17,0,0,0,0,0,0
1.687701,-1.446342,-10.586936,1.891618e-12,0,0,1.891618e-12,2.220446e-16,2.220446e-16,-3.863276e-18,0,0,0,0,2.259079e-16,2.181813e-16,3.863276e-18,0,5.151035e-18,1.480969e-16,0,0,0,0,0,0
1.734992,-1.446342,-10.633816,1.891618e-12,0,0,1.891618e-12,-3.330669e-16,-2.220446e-16,4.715078e-18,0,0,0,0,-2.218447e-16,-3.332668e-16,5.571104e-17,-47.427505,7.428139e-17,1.959006e-16,0,0,0,0,0,0
1.782282,-1.446342,-10.675554,1.891618e-12,0,0,1.891618e-12,0,-2.220446e-16,-5.508078e-18,0,0,0,0,1.365504e-19,-2.221812e-16,1.111588e-16,43.579876,1.482118e-16,1.481663e-16,0,0,0,0,0,0
1.829573,-1.446342,-10.714379,1.891618e-12,0,0,1.891618e-12,2.220446e-16,-2.220446e-16,-4.543039e-17,0,0,0,0,2.266445e-16,-2.266445e-16,2.266445e-16,39.218426,3.021927e-16,2.617065e-16,0,0,0,0,0,0
1.876863,-1.446342,-10.749805,1.891618e-12,0,0,1.891618e-12,4.440892e-16,-1.110223e-16,1.200038e-17,0,0,0,0,4.443485e-16,-1.112816e-16,2.778151e-16,46.237846,3.704201e-16,3.394617e-16,0,0,0,0,0,0
1.924154,-1.446342,-10.781841,1.891618e-12,0,0,1.891618e-12,2.220446e-16,2.220446e-16,1.847069e-18,0,0,0,0,2.238917e-16,2.201975e-16,1.847069e-18,90,2.462758e-18,1.480451e-16,0,0,0,0,0,0
1.971444,-1.446342,-10.809929,1.891618e-12,0,0,1.891618e-12,2.220446e-16,0,2.809787e-17,0,0,0,0,2.25545e-16,-3.500367e-18,1.145227e-16,52.101189,1.526969e-16,1.515436e-16,0,0,0,0,0,0
2.018735,-1.446342,-10.835593,1.891618e-12,0,0,1.891618e-12,2.220446e-16,2.220446e-16,-6.977062e-18,0,0,0,0,2.290217e-16,2.150675e-16,6.977062e-18,0,9.302749e-18,1.482488e-16,0,0,0,0,0,0
2.066025,-1.446342,-10.859644,1.891618e-12,0,0,1.891618e-12,-1.110223e-16,2.220446e-16,-2.439682e-17,0,0,0,0,2.238222e-16,-1.127999e-16,1.68311e-16,-40.832783,2.244147e-16,1.978409e-16,0,0,0,0,0,0
2.113316,-1.446342,-10.882508,1.891618e-12,0,0,1.891618e-12,0,0,-4.247416e-17,0,0,0,0,4.247416e-17,-4.247416e-17,4.247416e-17,0,5.663221e-17,4.904494e-17,0,0,0,0,0,0
2.160606,-1.446342,-10.903532,1.891618e-12,0,0,1.891618e-12,2.220446e-16,-2.220446e-16,-3.190297e-17,0,0,0,0,2.243248e-16,-2.243248e-16,2.243248e-16,40.9119,2.990997e-16,2.590279e-16,0,0,0,0,0,0
2.207896,-1.446342,-10.922382,1.891618e-12,0,0,1.891618e-12,-2.220446e-16,4.440892e-16,-6.345779e-18,0,0,0,0,4.441497e-16,-2.221051e-16,3.331274e-16,-44.45425,4.441698e-16,3.917184e-16,0,0,0,0,0,0
2.255187,-1.446342,-10.937362,1.891618e-12,0,0,1.891618e-12,-3.330669e-16,-1.110223e-16,-2.014733e-17,0,0,0,0,-1.09209e-16,-3.348802e-16,1.128356e-16,-39.857204,1.504474e-16,1.97202e-16,0,0,0,0,0,0
2.302477,-1.446342,-10.948792,1.891618e-12,0,0,1.891618e-12,0,-1.110223e-16,-2.934036e-17,0,0,0,0,7.276942e-18,-1.182992e-16,6.278809e-17,31.070679,8.371746e-17,8.14003e-17,0,0,0,0,0,0
2.349768,-1.446342,-10.955579,1.891618e-12,0,0,1.891618e-12,-2.220446e-16,-1.110223e-16,2.983464e-17,0,0,0,0,-1.035129e-16,-2.29554e-16,6.302058e-17,-59.127972,8.402744e-17,1.327457e-16,0,0,0,0,0,0
2.397058,-1.446342,-10.957391,1.891618e-12,0,0,1.891618e-12,0,2.220446e-16,1.371415e-17,0,0,0,0,2.228884e-16,-8.438204e-19,1.118661e-16,-48.520924,1.491548e-16,1.488744e-16,0,0,0,0,0,0
2.444349,-1.446342,-10.955083,1.891618e-12,0,0,1.891618e-12,-1.110223e-16,-1.110223e-16,-2.878426e-17,0,0,0,0,-8.223805e-17,-1.398066e-16,2.878426e-17,0,3.837901e-17,8.113515e-17,0,0,0,0,0,0
2.491639,-1.446342,-10.951345,1.891618e-12,0,0,1.891618e-12,2.220446e-16,-1.110223e-16,-4.694693e-17,0,0,0,0,2.285354e-16,-1.175131e-16,1.730243e-16,37.128246,2.306991e-16,2.031898e-16,0,0,0,0,0,0
2.53893,-1.446342,-10.947713,1.891618e-12,0,0,1.891618e-12,-1.110223e-16,0,7.735137e-18,0,0,0,0,5.363309e-19,-1.115586e-16,5.604748e-17,-48.966366,7.472998e-17,7.455184e-17,0,0,0,0,0,0
2.58622,-1.446342,-10.944765,1.891618e-12,0,0,1.891618e-12,2.220446e-16,2.220446e-16,-1.441933e-17,0,0,0,0,2.364639e-16,2.076253e-16,1.441933e-17,0,1.922578e-17,1.489632e-16,0,0,0,0,0,0
2.633511,-1.446342,-10.940899,1.891618e-12,0,0,1.891618e-12,-1.110223e-16,-2.220446e-16,-3.135914e-17,0,0,0,0,-1.02777e-16,-2.302899e-16,6.375643e-17,30.268602,8.500858e-17,1.332133e-16,0,0,0,0,0,0
2.680801,-1.446342,-10.933461,1.891618e-12,0,0,1.891618e-12,-1.110223e-16,-1.110223e-16,-1.829064e-17,0,0,0,0,-9.273166e-17,-1.293129e-16,1.829064e-17,0,2.438753e-17,7.696924e-17,0,0,0,0,0,0
2.728091,-1.446342,-10.921813,1.891618e-12,0,0,1.891618e-12,-2.220446e-16,2.220446e-16,-4.027802e-17,0,0,0,0,2.256682e-16,-2.256682e-16,2.256682e-16,-39.859283,3.008909e-16,2.605792e-16,0,0,0,0,0,0
2.775382,-1.446342,-10.907052,1.891618e-12,0,0,1.891618e-12,-1.110223e-16,0,5.873752e-18,0,0,0,0,3.09892e-19,-1.113322e-16,5.582105e-17,-48.020058,7.442806e-17,7.432498e-17,0,0,0,0,0,0
2.822672,-1.446342,-10.890336,1.891618e-12,0,0,1.891618e-12,0,0,-4.871345e-17,0,0,0,0,4.871345e-17,-4.871345e-17,4.871345e-17,0,6.495127e-17,5.624945e-17,0,0,0,0,0,0
2.869963,-1.446342,-10.872146,1.891618e-12,0,0,1.891618e-12,2.220446e-16,-2.220446e-16,-1.71552e-17,0,0,0,0,2.227063e-16,-2.227063e-16,2.227063e-16,42.791046,2.969418e-16,2.571591e-16,0,0,0,0,0,0
2.917253,-1.446342,-10.851979,1.891618e-12,0,0,1.891618e-12,0,0,-3.879993e-17,0,0,0,0,3.879993e-17,-3.879993e-17,3.879993e-17,0,5.173324e-17,4.48023e-17,0,0,0,0,0,0
2.964544,-1.446342,-10.828648,1.891618e-12,0,0,1.891618e-12,-2.220446e-16,0,-1.083769e-17,0,0,0,0,5.277188e-19,-2.225723e-16,1.1155e-16,-42.212303,1.487334e-16,1.485578e-16,0,0,0,0,0,0
3.011834,-1.446342,-10.802394,1.891618e-12,0,0,1.891618e-12,2.220446e-16,0,4.046792e-17,0,0,0,0,2.2919e-16,-7.145393e-18,1.181677e-16,55.013466,1.575569e-16,1.5523e-16,0,0,0,0,0,0
3.059125,-1.446342,-10.773463,1.891618e-12,0,0,1.891618e-12,0,2.220446e-16,-2.780331e-18,0,0,0,0,2.220794e-16,-3.480845e-20,1.110571e-16,-44.282722,1.480761e-16,1.480645e-16,0,0,0,0,0,0
3.106415,-1.446342,-10.741819,1.891618e-12,0,0,1.891618e-12,-2.220446e-16,-1.110223e-16,4.172609e-17,0,0,0,0,-9.708884e-17,-2.359781e-16,6.944462e-17,-63.465553,9.259282e-17,1.369526e-16,0,0,0,0,0,0
3.153705,-1.446342,-10.706989,1.891618e-12,0,0,1.891618e-12,-2.220446e-16,-2.220446e-16,-3.012267e-17,0,0,0,0,-1.919219e-16,-2.521673e-16,3.012267e-17,0,4.016356e-17,1.520613e-16,0,0,0,0,0,0
3.200996,-1.446342,-10.66743,1.891618e-12,0,0,1.891618e-12,0,0,-8.983539e-18,0,0,0,0,8.983539e-18,-8.983539e-18,8.983539e-18,0,1.197805e-17,1.03733e-17,0,0,0,0,0,0
3.248286,-1.446342,-10.621402,1.891618e-12,0,0,1.891618e-12,0,2.220446e-16,-3.98826e-17,0,0,0,0,2.289908e-16,-6.946224e-18,1.179685e-16,-35.120083,1.572914e-16,1.550278e-16,0,0,0,0,0,0
3.295577,-1.446342,-10.567751,1.891618e-12,0,0,1.891618e-12,0,0,-2.046902e-17,0,0,0,0,2.046902e-17,-2.046902e-17,2.046902e-17,0,2.729202e-17,2.363559e-17,0,0,0,0,0,0
3.342867,-1.446342,-10.518252,1.891618e-12,0,0,1.891618e-12,-2.220446e-16,0,3.63221e-17,0,0,0,0,5.790566e-18,-2.278352e-16,1.168129e-16,-54.058022,1.557505e-16,1.538566e-16,0,0,0,0,0,0
3.390158,-1.446342,-10.48548,1.891618e-12,0,0,1.891618e-12,0,2.220446e-16,1.648215e-17,0,0,0,0,2.232614e-16,-1.216787e-18,1.122391e-16,-49.222172,1.496521e-16,1.492482e-16,0,0,0,0,0,0
1.451249,-1.493632,-10.169247,1.891618e-12,0,0,1.891618e-12,-1.110223e-16,-1.110223e-16,4.394983e-17,0,0,0,0,-6.707247e-17,-1.549721e-16,4.394983e-17,90,5.859978e-17,8.974213e-17,0,0,0,0,0,0
1.49854,-1.493632,-10.277083,1.891618e-12,0,0,1.891618e-12,2.220446e-16,0,7.483829e-18,0,0,0,0,2.222965e-16,-2.519503e-19,1.112743e-16,46.928188,1.483657e-16,1.482818e-16,0,0,0,0,0,0
1.54583,-1.493632,-10.377,1.891618e-12,0,0,1.891618e-12,2.220446e-16,0,2.372888e-17,0,0,0,0,2.245521e-16,-2.50748e-18,1.135298e-16,51.032177,1.51373e-16,1.505442e-16,0,0,0,0,0,0
1.593121,-1.493632,-10.461188,1.891618e-12,0,0,1.891618e-12,0,-1.110223e-16,-3.704141e-17,0,0,0,0,1.12238e-17,-1.222461e-16,6.673495e-17,28.14283,8.897994e-17,8.548463e-17,0,0,0,0,0,0
1.640411,-1.493632,-10.530436,1.891618e-12,0,0,1.891618e-12,-1.110223e-16,-1.110223e-16,-2.94973e-17,0,0,0,0,-8.1525e-17,-1.405196e-16,2.94973e-17,0,3.932973e-17,8.147589e-17,0,0,0,0,0,0
1.687701,-1.493632,-10.587329,1.891618e-12,0,0,1.891618e-12,2.220446e-16,0,2.256746e-17,0,0,0,0,2.24315e-16,-2.270423e-18,1.132927e-16,50.744972,1.51057e-16,1.503059e-16,0,0,0,0,0,0
1.734992,-1.493632,-10.635154,1.891618e-12,0,0,1.891618e-12,-2.220446e-16,-2.220446e-16,-2.361956e-17,0,0,0,0,-1.984251e-16,-2.456642e-16,2.361956e-17,0,3.149274e-17,1.505212e-16,0,0,0,0,0,0
1.782282,-1.493632,-10.677453,1.891618e-12,0,0,1.891618e-12,2.220446e-16,2.220446e-16,3.274907e-17,0,0,0,0,2.547937e-16,1.892955e-16,3.274907e-17,90,4.366543e-17,1.527835e-16,0,0,0,0,0,0
1.829573,-1.493632,-10.716307,1.891618e-12,0,0,1.891618e-12,0,0,-9.605847e-19,0,0,0,0,9.605847e-19,-9.605847e-19,9.605847e-19,0,1.280779e-18,1.109188e-18,0,0,0,0,0,0
1.876863,-1.493632,-10.751223,1.891618e-12,0,0,1.891618e-12,0,-4.440892e-16,3.931725e-17,0,0,0,0,3.454071e-18,-4.475433e-16,2.254987e-16,50.020618,3.006649e-16,2.995202e-16,0,0,0,0,0,0
1.924154,-1.493632,-10.782401,1.891618e-12,0,0,1.891618e-12,2.220446e-16,2.220446e-16,2.301633e-18,0,0,0,0,2.243462e-16,2.19743e-16,2.301633e-18,90,3.068844e-18,1.480536e-16,0,0,0,0,0,0
1.971444,-1.493632,-10.809985,1.891618e-12,0,0,1.891618e-12,2.220446e-16,2.220446e-16,1.499068e-17,0,0,0,0,2.370353e-16,2.070539e-16,1.499068e-17,90,1.998758e-17,1.490383e-16,0,0,0,0,0,0
2.018735,-1.493632,-10.835472,1.891618e-12,0,0,1.891618e-12,2.220446e-16,-1.110223e-16,6.208123e-18,0,0,0,0,2.221603e-16,-1.11138e-16,1.666491e-16,46.067455,2.221988e-16,1.959561e-16,0,0,0,0,0,0
2.066025,-1.493632,-10.85988,1.891618e-12,0,0,1.891618e-12,4.440892e-16,0,1.011261e-17,0,0,0,0,4.443194e-16,-2.301606e-19,2.222748e-16,46.303814,2.963663e-16,2.962897e-16,0,0,0,0,0,0
2.113316,-1.493632,-10.883439,1.891618e-12,0,0,1.891618e-12,0,-2.220446e-16,1.389254e-17,0,0,0,0,8.658308e-19,-2.229104e-16,1.118881e-16,48.566257,1.491842e-16,1.488964e-16,0,0,0,0,0,0
2.160606,-1.493632,-10.905244,1.891618e-12,0,0,1.891618e-12,-3.330669e-16,-2.220446e-16,3.263756e-18,0,0,0,0,-2.219487e-16,-3.331628e-16,5.560701e-17,-46.682404,7.414269e-17,1.958612e-16,0,0,0,0,0,0
2.207896,-1.493632,-10.924573,1.891618e-12,0,0,1.891618e-12,0,-1.110223e-16,1.272269e-17,0,0,0,0,1.439307e-18,-1.124616e-16,5.695046e-17,51.454384,7.593394e-17,7.545875e-17,0,0,0,0,0,0
2.255187,-1.493632,-10.939507,1.891618e-12,0,0,1.891618e-12,2.220446e-16,0,-6.841261e-18,0,0,0,0,2.222552e-16,-2.105816e-19,1.112329e-16,43.236931,1.483105e-16,1.482404e-16,0,0,0,0,0,0
2.302477,-1.493632,-10.950024,1.891618e-12,0,0,1.891618e-12,0,2.220446e-16,1.910484e-17,0,0,0,0,2.236764e-16,-1.631798e-18,1.126541e-16,-49.881947,1.502055e-16,1.496645e-16,0,0,0,0,0,0
2.349768,-1.493632,-10.95596,1.891618e-12,0,0,1.891618e-12,0,2.220446e-16,-3.989893e-17,0,0,0,0,2.289964e-16,-6.951747e-18,1.17974e-16,-35.116348,1.572987e-16,1.550334e-16,0,0,0,0,0,0
2.397058,-1.493632,-10.957494,1.891618e-12,0,0,1.891618e-12,0,0,-1.459596e-17,0,0,0,0,1.459596e-17,-1.459596e-17,1.459596e-17,0,1.946128e-17,1.685396e-17,0,0,0,0,0,0
2.444349,-1.493632,-10.956278,1.891618e-12,0,0,1.891618e-12,0,2.220446e-16,1.910663e-17,0,0,0,0,2.236767e-16,-1.632102e-18,1.126544e-16,-49.882397,1.502059e-16,1.496648e-16,0,0,0,0,0,0
2.491639,-1.493632,-10.954397,1.891618e-12,0,0,1.891618e-12,0,-1.110223e-16,-2.060517e-18,0,0,0,0,3.822898e-20,-1.110605e-16,5.554938e-17,43.937107,7.406584e-17,7.40531e-17,0,0,0,0,0,0
2.53893,-1.493632,-10.952597,1.891618e-12,0,0,1.891618e-12,0,0,2.364765e-17,0,0,0,0,2.364765e-17,-2.364765e-17,2.364765e-17,90,3.153021e-17,2.730596e-17,0,0,0,0,0,0
2.58622,-1.493632,-10.950553,1.891618e-12,0,0,1.891618e-12,2.220446e-16,-4.440892e-16,7.686167e-18,0,0,0,0,2.221333e-16,-4.441779e-16,3.331556e-16,45.660988,4.442074e-16,3.917504e-16,0,0,0,0,0,0
2.633511,-1.493632,-10.946564,1.891618e-12,0,0,1.891618e-12,2.220446e-16,2.220446e-16,1.673263e-17,0,0,0,0,2.387772e-16,2.05312e-16,1.673263e-17,90,2.231017e-17,1.492853e-16,0,0,0,0,0,0
2.680801,-1.493632,-10.938665,1.891618e-12,0,0,1.891618e-12,0,2.220446e-16,-6.253685e-17,0,0,0,0,2.38446e-16,-1.640144e-17,1.274237e-16,-30.304113,1.698983e-16,1.647036e-16,0,0,0,0,0,0
2.728091,-1.493632,-10.926976,1.891618e-12,0,0,1.891618e-12,0,-1.110223e-16,-4.029502e-19,0,0,0,0,1.462469e-21,-1.110238e-16,5.551261e-17,44.792053,7.401682e-17,7.401633e-17,0,0,0,0,0,0
2.775382,-1.493632,-10.912537,1.891618e-12,0,0,1.891618e-12,0,2.220446e-16,-1.944428e-17,0,0,0,0,2.237345e-16,-1.689861e-18,1.127122e-16,-40.033028,1.502829e-16,1.497228e-16,0,0,0,0,0,0
2.822672,-1.493632,-10.896164,1.891618e-12,0,0,1.891618e-12,0,2.220446e-16,-3.665344e-17,0,0,0,0,2.279386e-16,-5.894021e-18,1.169163e-16,-35.864811,1.558884e-16,1.539614e-16,0,0,0,0,0,0
2.869963,-1.493632,-10.878004,1.891618e-12,0,0,1.891618e-12,2.220446e-16,2.220446e-16,1.973011e-17,0,0,0,0,2.417747e-16,2.023145e-16,1.973011e-17,90,2.630682e-17,1.497726e-16,0,0,0,0,0,0
2.917253,-1.493632,-10.857507,1.891618e-12,0,0,1.891618e-12,0,2.220446e-16,-3.277601e-17,0,0,0,0,2.267816e-16,-4.737011e-18,1.157593e-16,-36.776169,1.543457e-16,1.527912e-16,0,0,0,0,0,0
2.964544,-1.493632,-10.833972,1.891618e-12,0,0,1.891618e-12,-4.440892e-16,-1.110223e-16,2.138838e-17,0,0,0,0,-1.096544e-16,-4.454571e-16,1.679013e-16,-48.659302,2.238684e-16,2.680048e-16,0,0,0,0,0,0
3.011834,-1.493632,-10.807746,1.891618e-12,0,0,1.891618e-12,2.220446e-16,-2.220446e-16,-2.246702e-17,0,0,0,0,2.231783e-16,-2.231783e-16,2.231783e-16,42.111168,2.975711e-16,2.577042e-16,0,0,0,0,0,0
3.059125,-1.493632,-10.77892,1.891618e-12,0,0,1.891618e-12,0,2.220446e-16,-2.480089e-17,0,0,0,0,2.24781e-16,-2.736371e-18,1.137587e-16,-38.703819,1.516782e-16,1.507744e-16,0,0,0,0,0,0
3.106415,-1.493632,-10.747142,1.891618e-12,0,0,1.891618e-12,0,-1.110223e-16,-2.189154e-17,0,0,0,0,4.160679e-18,-1.15183e-16,5.967183e-17,34.238781,7.956244e-17,7.821245e-17,0,0,0,0,0,0
3.153705,-1.493632,-10.711567,1.891618e-12,0,0,1.891618e-12,4.440892e-16,0,-3.384694e-17,0,0,0,0,4.466541e-16,-2.564882e-18,2.246095e-16,40.666473,2.994793e-16,2.98628e-16,0,0,0,0,0,0
3.200996,-1.493632,-10.670264,1.891618e-12,0,0,1.891618e-12,2.220446e-16,-1.110223e-16,-7.48744e-18,0,0,0,0,2.222128e-16,-1.111905e-16,1.667017e-16,43.712841,2.222689e-16,1.960157e-16,0,0,0,0,0,0
3.248286,-1.493632,-10.622551,1.891618e-12,0,0,1.891618e-12,-3.330669e-16,-2.220446e-16,1.295373e-17,0,0,0,0,-2.205532e-16,-3.345583e-16,5.700252e-17,-51.567562,7.600336e-17,1.963954e-16,0,0,0,0,0,0
3.295577,-1.493632,-10.566716,1.891618e-12,0,0,1.891618e-12,0,0,2.068627e-17,0,0,0,0,2.068627e-17,-2.068627e-17,2.068627e-17,90,2.75817e-17,2.388645e-17,0,0,0,0,0,0
3.342867,-1.493632,-10.530831,1.891618e-12,0,0,1.891618e-12,0,2.220446e-16,-3.828605e-17,0,0,0,0,2.284607e-16,-6.41608e-18,1.174384e-16,-35.486618,1.565845e-16,1.544902e-16,0,0,0,0,0,0
1.451249,-1.540923,-10.160655,1.891618e-12,0,0,1.891618e-12,2.220446e-16,2.220446e-16,1.832982e-17,0,0,0,0,2.403744e-16,2.037148e-16,1.832982e-17,90,2.443976e-17,1.495352e-16,0,0,0,0,0,0
1.49854,-1.540923,-10.272309,1.891618e-12,0,0,1.891618e-12,-2.220446e-16,2.220446e-16,-9.416976e-18,0,0,0,0,2.222442e-16,-2.222442e-16,2.222442e-16,-43.785763,2.963256e-16,2.566255e-16,0,0,0,0,0,0
1.54583,-1.540923,-10.374896,1.891618e-12,0,0,1.891618e-12,0,2.220446e-16,-8.829214e-19,0,0,0,0,2.220481e-16,-3.510727e-21,1.110258e-16,-44.772179,1.480344e-16,1.480332e-16,0,0,0,0,0,0
1.593121,-1.540923,-10.460889,1.891618e-12,0,0,1.891618e-12,-1.110223e-16,2.220446e-16,-9.96675e-18,0,0,0,0,2.223426e-16,-1.113203e-16,1.668314e-16,-43.287514,2.224419e-16,1.961628e-16,0,0,0,0,0,0
1.640411,-1.540923,-10.531431,1.891618e-12,0,0,1.891618e-12,0,2.220446e-16,-1.700074e-17,0,0,0,0,2.233387e-16,-1.294112e-18,1.123164e-16,-40.646988,1.497552e-16,1.493257e-16,0,0,0,0,0,0
1.687701,-1.540923,-10.589233,1.891618e-12,0,0,1.891618e-12,2.220446e-16,-1.110223e-16,-1.561085e-17,0,0,0,0,2.227747e-16,-1.117524e-16,1.672635e-16,42.322372,2.230181e-16,1.966528e-16,0,0,0,0,0,0
1.734992,-1.540923,-10.637607,1.891618e-12,0,0,1.891618e-12,0,0,-7.388912e-18,0,0,0,0,7.388912e-18,-7.388912e-18,7.388912e-18,0,9.851883e-18,8.531981e-18,0,0,0,0,0,0
1.782282,-1.540923,-10.680024,1.891618e-12,0,0,1.891618e-12,-2.220446e-16,0,-4.450819e-17,0,0,0,0,8.58928e-18,-2.306339e-16,1.196116e-16,-34.077221,1.594821e-16,1.566975e-16,0,0,0,0,0,0
1.829573,-1.540923,-10.718612,1.891618e-12,0,0,1.891618e-12,-2.220446e-16,0,2.530941e-17,0,0,0,0,2.848316e-18,-2.248929e-16,1.138706e-16,-51.42104,1.518275e-16,1.50887e-16,0,0,0,0,0,0
1.876863,-1.540923,-10.753026,1.891618e-12,0,0,1.891618e-12,-2.220446e-16,2.220446e-16,-2.694403e-17,0,0,0,0,2.236734e-16,-2.236734e-16,2.236734e-16,-41.54063,2.982312e-16,2.582758e-16,0,0,0,0,0,0
1.924154,-1.540923,-10.783278,1.891618e-12,0,0,1.891618e-12,2.220446e-16,-5.551115e-16,1.176061e-18,0,0,0,0,2.220464e-16,-5.551133e-16,3.885798e-16,45.086704,5.181064e-16,4.622247e-16,0,0,0,0,0,0
1.971444,-1.540923,-10.810245,1.891618e-12,0,0,1.891618e-12,0,-1.110223e-16,1.797532e-17,0,0,0,0,2.8378e-18,-1.138601e-16,5.834895e-17,53.971355,7.77986e-17,7.687013e-17,0,0,0,0,0,0
2.018735,-1.540923,-10.835462,1.891618e-12,0,0,1.891618e-12,2.220446e-16,0,1.205238e-17,0,0,0,0,2.226969e-16,-6.522764e-19,1.116746e-16,48.097832,1.488994e-16,1.486825e-16,0,0,0,0,0,0
2.066025,-1.540923,-10.860198,1.891618e-12,0,0,1.891618e-12,0,2.220446e-16,-1.518405e-17,0,0,0,0,2.230781e-16,-1.033519e-18,1.120558e-16,-41.106106,1.494078e-16,1.490644e-16,0,0,0,0,0,0
2.113316,-1.540923,-10.884202,1.891618e-12,0,0,1.891618e-12,0,-1.110223e-16,-2.438282e-17,0,0,0,0,5.118954e-18,-1.161413e-16,6.06301e-17,33.143456,8.084014e-17,7.918899e-17,0,0,0,0,0,0
2.160606,-1.540923,-10.906327,1.891618e-12,0,0,1.891618e-12,2.220446e-16,0,-3.77894e-18,0,0,0,0,2.221089e-16,-6.429453e-20,1.110866e-16,44.025269,1.481155e-16,1.48094e-16,0,0,0,0,0,0
2.207896,-1.540923,-10.925356,1.891618e-12,0,0,1.891618e-12,2.220446e-16,-1.110223e-16,-4.05621e-17,0,0,0,0,2.269132e-16,-1.158909e-16,1.714021e-16,38.155582,2.285361e-16,2.013482e-16,0,0,0,0,0,0
2.255187,-1.540923,-10.939656,1.891618e-12,0,0,1.891618e-12,2.220446e-16,2.220446e-16,-3.759361e-17,0,0,0,0,2.596382e-16,1.84451e-16,3.759361e-17,0,5.012482e-17,1.542633e-16,0,0,0,0,0,0
2.302477,-1.540923,-10.949208,1.891618e-12,0,0,1.891618e-12,-1.110223e-16,2.220446e-16,-6.875594e-18,0,0,0,0,2.221865e-16,-1.111642e-16,1.666753e-16,-43.817898,2.222338e-16,1.959858e-16,0,0,0,0,0,0
2.349768,-1.540923,-10.954503,1.891618e-12,0,0,1.891618e-12,0,0,-1.318871e-17,0,0,0,0,1.318871e-17,-1.318871e-17,1.318871e-17,0,1.758495e-17,1.522901e-17,0,0,0,0,0,0
2.397058,-1.540923,-10.956037,1.891618e-12,0,0,1.891618e-12,-2.220446e-16,2.220446e-16,-2.892695e-17,0,0,0,0,2.239209e-16,-2.239209e-16,2.239209e-16,-41.288784,2.985612e-16,2.585616e-16,0,0,0,0,0,0
2.444349,-1.540923,-10.955774,1.891618e-12,0,0,1.891618e-12,2.220446e-16,0,1.296817e-19,0,0,0,0,2.220447e-16,-7.573859e-23,1.110224e-16,45.033463,1.480298e-16,1.480298e-16,0,0,0,0,0,0
2.491639,-1.540923,-10.955384,1.891618e-12,0,0,1.891618e-12,0,0,-2.636142e-17,0,0,0,0,2.636142e-17,-2.636142e-17,2.636142e-17,0,3.514855e-17,3.043954e-17,0,0,0,0,0,0
2.53893,-1.540923,-10.955079,1.891618e-12,0,0,1.891618e-12,0,-2.220446e-16,-1.713737e-18,0,0,0,0,1.322581e-20,-2.220578e-16,1.110355e-16,44.557827,1.480474e-16,1.48043e-16,0,0,0,0,0,0
2.58622,-1.540923,-10.953783,1.891618e-12,0,0,1.891618e-12,-4.440892e-16,-1.110223e-16,2.776177e-17,0,0,0,0,-1.087242e-16,-4.463874e-16,1.688316e-16,-49.732197,2.251088e-16,2.687829e-16,0,0,0,0,0,0
2.633511,-1.540923,-10.949759,1.891618e-12,0,0,1.891618e-12,4.440892e-16,0,-1.722884e-17,0,0,0,0,4.447566e-16,-6.67405e-19,2.22712e-16,42.781605,2.969493e-16,2.967271e-16,0,0,0,0,0,0
2.680801,-1.540923,-10.94156,1.891618e-12,0,0,1.891618e-12,-1.110223e-16,2.220446e-16,-2.784228e-17,0,0,0,0,2.24356e-16,-1.133337e-16,1.688448e-16,-40.25433,2.251265e-16,1.984465e-16,0,0,0,0,0,0
2.728091,-1.540923,-10.930017,1.891618e-12,0,0,1.891618e-12,-1.110223e-16,-1.110223e-16,2.912151e-17,0,0,0,0,-8.190079e-17,-1.401438e-16,2.912151e-17,90,3.882868e-17,8.129545e-17,0,0,0,0,0,0
2.775382,-1.540923,-10.916319,1.891618e-12,0,0,1.891618e-12,0,-1.110223e-16,5.922924e-17,0,0,0,0,2.566514e-17,-1.366874e-16,8.11763e-17,68.427994,1.082351e-16,1.007754e-16,0,0,0,0,0,0
2.822672,-1.540923,-10.900654,1.891618e-12,0,0,1.891618e-12,0,-1.110223e-16,-1.899639e-18,0,0,0,0,3.249411e-20,-1.110548e-16,5.554364e-17,44.020027,7.405819e-17,7.404736e-17,0,0,0,0,0,0
2.869963,-1.540923,-10.88264,1.891618e-12,0,0,1.891618e-12,0,4.440892e-16,-1.587567e-17,0,0,0,0,4.44656e-16,-5.668134e-19,2.226114e-16,-42.955223,2.968152e-16,2.966265e-16,0,0,0,0,0,0
2.917253,-1.540923,-10.861886,1.891618e-12,0,0,1.891618e-12,2.220446e-16,-2.220446e-16,4.218159e-18,0,0,0,0,2.220847e-16,-2.220847e-16,2.220847e-16,45.544155,2.961129e-16,2.564413e-16,0,0,0,0,0,0
2.964544,-1.540923,-10.838295,1.891618e-12,0,0,1.891618e-12,-1.110223e-16,0,9.91518e-18,0,0,0,0,8.785527e-19,-1.119009e-16,5.63897e-17,-50.063572,7.518627e-17,7.489514e-17,0,0,0,0,0,0
3.011834,-1.540923,-10.812455,1.891618e-12,0,0,1.891618e-12,-1.110223e-16,2.220446e-16,2.012652e-17,0,0,0,0,2.232564e-16,-1.122341e-16,1.677453e-16,-48.445549,2.236603e-16,1.971992e-16,0,0,0,0,0,0
3.059125,-1.540923,-10.784206,1.891618e-12,0,0,1.891618e-12,-2.220446e-16,-2.220446e-16,2.585386e-17,0,0,0,0,-1.961908e-16,-2.478985e-16,2.585386e-17,90,3.447181e-17,1.5101e-16,0,0,0,0,0,0
3.106415,-1.540923,-10.752876,1.891618e-12,0,0,1.891618e-12,2.220446e-16,-4.440892e-16,3.20733e-18,0,0,0,0,2.2206e-16,-4.441047e-16,3.330823e-16,45.27586,4.441098e-16,3.916674e-16,0,0,0,0,0,0
3.153705,-1.540923,-10.717093,1.891618e-12,0,0,1.891618e-12,-2.220446e-16,0,3.223869e-17,0,0,0,0,4.586024e-18,-2.266306e-16,1.156083e-16,-53.09613,1.541444e-16,1.526387e-16,0,0,0,0,0,0
3.200996,-1.540923,-10.67422,1.891618e-12,0,0,1.891618e-12,2.220446e-16,0,1.435751e-17,0,0,0,0,2.229691e-16,-9.245143e-19,1.119468e-16,48.684326,1.492624e-16,1.489552e-16,0,0,0,0,0,0
3.248286,-1.540923,-10.624591,1.891618e-12,0,0,1.891618e-12,0,0,2.795686e-17,0,0,0,0,2.795686e-17,-2.795686e-17,2.795686e-17,90,3.727581e-17,3.22818e-17,0,0,0,0,0,0
3.295577,-1.540923,-10.568888,1.891618e-12,0,0,1.891618e-12,0,0,1.294189e-17,0,0,0,0,1.294189e-17,-1.294189e-17,1.294189e-17,90,1.725586e-17,1.494401e-17,0,0,0,0,0,0
3.342867,-1.540923,-10.518648,1.891618e-12,0,0,1.891618e-12,0,-1.110223e-16,8.924241e-17,0,0,0,0,4.958735e-17,-1.606096e-16,1.050985e-16,74.058647,1.401313e-16,1.268745e-16,0,0,0,0,0,0
1.451249,-1.588213,-10.156472,1.891618e-12,0,0,1.891618e-12,2.220446e-16,0,-3.016652e-17,0,0,0,0,2.2607e-16,-4.025387e-18,1.150477e-16,37.399414,1.533969e-16,1.520729e-16,0,0,0,0,0,0
1.49854,-1.588213,-10.271993,1.891618e-12,0,0,1.891618e-12,-2.220446e-16,-1.110223e-16,1.335523e-17,0,0,0,0,-1.094384e-16,-2.236286e-16,5.70951e-17,-51.763748,7.612679e-17,1.291217e-16,0,0,0,0,0,0
1.54583,-1.588213,-10.376304,1.891618e-12,0,0,1.891618e-12,2.220446e-16,-2.220446e-16,2.957474e-17,0,0,0,0,2.240055e-16,-2.240055e-16,2.240055e-16,48.793365,2.98674e-16,2.586593e-16,0,0,0,0,0,0
1.593121,-1.588213,-10.46317,1.891618e-12,0,0,1.891618e-12,0,4.440892e-16,3.516695e-17,0,0,0,0,4.468568e-16,-2.767586e-18,2.248122e-16,-49.499817,2.997496e-16,2.988313e-16,0,0,0,0,0,0
1.640411,-1.588213,-10.53439,1.891618e-12,0,0,1.891618e-12,2.220446e-16,0,3.394232e-17,0,0,0,0,2.271172e-16,-5.072627e-18,1.160949e-16,53.499859,1.547932e-16,1.531304e-16,0,0,0,0,0,0
1.687701,-1.588213,-10.59242,1.891618e-12,0,0,1.891618e-12,0,2.220446e-16,2.793773e-17,0,0,0,0,2.255058e-16,-3.461184e-18,1.144835e-16,-52.062344,1.526447e-16,1.515041e-16,0,0,0,0,0,0
1.734992,-1.588213,-10.641093,1.891618e-12,0,0,1.891618e-12,0,0,3.23715e-18,0,0,0,0,3.23715e-18,-3.23715e-18,3.23715e-18,90,4.3162e-18,3.737939e-18,0,0,0,0,0,0
1.782282,-1.588213,-10.683645,1.891618e-12,0,0,1.891618e-12,-2.220446e-16,-1.110223e-16,-3.350739e-17,0,0,0,0,-1.016934e-16,-2.313735e-16,6.484006e-17,-29.442083,8.645341e-17,1.339089e-16,0,0,0,0,0,0
1.829573,-1.588213,-10.721673,1.891618e-12,0,0,1.891618e-12,0,-1.110223e-16,-5.301388e-18,0,0,0,0,2.525701e-19,-1.112749e-16,5.576372e-17,42.272362,7.435163e-17,7.426758e-17,0,0,0,0,0,0
1.876863,-1.588213,-10.755455,1.891618e-12,0,0,1.891618e-12,-2.220446e-16,2.220446e-16,-2.192188e-17,0,0,0,0,2.231241e-16,-2.231241e-16,2.231241e-16,-42.180805,2.974988e-16,2.576415e-16,0,0,0,0,0,0
1.924154,-1.588213,-10.784997,1.891618e-12,0,0,1.891618e-12,0,-1.110223e-16,2.862294e-17,0,0,0,0,6.944917e-18,-1.179672e-16,6.245607e-17,58.638382,8.327475e-17,8.105901e-17,0,0,0,0,0,0
1.971444,-1.588213,-10.811475,1.891618e-12,0,0,1.891618e-12,-2.220446e-16,-1.110223e-16,1.493407e-17,0,0,0,0,-1.090486e-16,-2.240184e-16,5.74849e-17,-52.528831,7.664654e-17,1.293521e-16,0,0,0,0,0,0
2.018735,-1.588213,-10.836499,1.891618e-12,0,0,1.891618e-12,2.220446e-16,0,5.04672e-18,0,0,0,0,2.221592e-16,-1.146447e-19,1.111369e-16,46.301346,1.481826e-16,1.481444e-16,0,0,0,0,0,0
2.066025,-1.588213,-10.86118,1.891618e-12,0,0,1.891618e-12,-2.220446e-16,2.220446e-16,1.986016e-17,0,0,0,0,2.22931e-16,-2.22931e-16,2.22931e-16,-47.555531,2.972413e-16,2.574186e-16,0,0,0,0,0,0
2.113316,-1.588213,-10.884712,1.891618e-12,0,0,1.891618e-12,0,-1.110223e-16,9.179961e-18,0,0,0,0,7.539321e-19,-1.117762e-16,5.626508e-17,49.695053,7.502011e-17,7.477007e-17,0,0,0,0,0,0
2.160606,-1.588213,-10.906503,1.891618e-12,0,0,1.891618e-12,0,-2.220446e-16,6.030789e-17,0,0,0,0,1.532244e-17,-2.37367e-16,1.263447e-16,59.25552,1.684596e-16,1.635915e-16,0,0,0,0,0,0
2.207896,-1.588213,-10.92507,1.891618e-12,0,0,1.891618e-12,2.220446e-16,2.220446e-16,-3.289805e-18,0,0,0,0,2.253344e-16,2.187548e-16,3.289805e-18,0,4.386406e-18,1.480785e-16,0,0,0,0,0,0
2.255187,-1.588213,-10.938915,1.891618e-12,0,0,1.891618e-12,0,2.220446e-16,4.872056e-17,0,0,0,0,2.322644e-16,-1.021979e-17,1.212421e-16,-56.846794,1.616561e-16,1.583595e-16,0,0,0,0,0,0
2.302477,-1.588213,-10.948066,1.891618e-12,0,0,1.891618e-12,0,0,-5.971967e-17,0,0,0,0,5.971967e-17,-5.971967e-17,5.971967e-17,0,7.962623e-17,6.895834e-17,0,0,0,0,0,0
2.349768,-1.588213,-10.953018,1.891618e-12,0,0,1.891618e-12,0,2.220446e-16,6.642268e-17,0,0,0,0,2.403974e-16,-1.835282e-17,1.293751e-16,-60.445667,1.725002e-16,1.667196e-16,0,0,0,0,0,0
2.397058,-1.588213,-10.95442,1.891618e-12,0,0,1.891618e-12,2.220446e-16,0,-6.52759e-17,0,0,0,0,2.398124e-16,-1.776781e-17,1.287901e-16,29.773237,1.717202e-16,1.661146e-16,0,0,0,0,0,0
2.444349,-1.588213,-10.954655,1.891618e-12,0,0,1.891618e-12,0,0,5.674392e-18,0,0,0,0,5.674392e-18,-5.674392e-18,5.674392e-18,90,7.565855e-18,6.552223e-18,0,0,0,0,0,0
2.491639,-1.588213,-10.955163,1.891618e-12,0,0,1.891618e-12,0,2.220446e-16,3.811646e-17,0,0,0,0,2.284055e-16,-6.3609e-18,1.173832e-16,-54.474251,1.565109e-16,1.544343e-16,0,0,0,0,0,0
2.53893,-1.588213,-10.955752,1.891618e-12,0,0,1.891618e-12,-1.110223e-16,-1.110223e-16,2.249008e-17,0,0,0,0,-8.853222e-17,-1.335124e-16,2.249008e-17,90,2.998677e-17,7.843855e-17,0,0,0,0,0,0
2.58622,-1.588213,-10.955088,1.891618e-12,0,0,1.891618e-12,2.220446e-16,-1.110223e-16,-2.750195e-18,0,0,0,0,2.220673e-16,-1.11045e-16,1.665562e-16,44.526939,2.220749e-16,1.958507e-16,0,0,0,0,0,0
2.633511,-1.588213,-10.951198,1.891618e-12,0,0,1.891618e-12,-4.440892e-16,2.220446e-16,2.124582e-17,0,0,0,0,2.227215e-16,-4.447661e-16,3.337438e-16,-46.824932,4.449918e-16,3.924175e-16,0,0,0,0,0,0
2.680801,-1.588213,-10.942961,1.891618e-12,0,0,1.891618e-12,-1.110223e-16,0,-1.833635e-17,0,0,0,0,2.950028e-18,-1.139723e-16,5.846118e-17,-35.860332,7.794824e-17,7.698374e-17,0,0,0,0,0,0
2.728091,-1.588213,-10.931609,1.891618e-12,0,0,1.891618e-12,0,-1.110223e-16,3.634013e-17,0,0,0,0,1.083712e-17,-1.218594e-16,6.634827e-17,61.605293,8.846437e-17,8.508236e-17,0,0,0,0,0,0
2.775382,-1.588213,-10.918503,1.891618e-12,0,0,1.891618e-12,-1.110223e-16,-1.110223e-16,-1.504384e-17,0,0,0,0,-9.597845e-17,-1.260662e-16,1.504384e-17,0,2.005846e-17,7.602603e-17,0,0,0,0,0,0
2.822672,-1.588213,-10.903358,1.891618e-12,0,0,1.891618e-12,-2.220446e-16,0,1.816937e-17,0,0,0,0,1.476932e-18,-2.235215e-16,1.124992e-16,-49.647179,1.49999e-16,1.495091e-16,0,0,0,0,0,0
2.869963,-1.588213,-10.885539,1.891618e-12,0,0,1.891618e-12,2.220446e-16,0,2.120993e-17,0,0,0,0,2.240524e-16,-2.007839e-18,1.130301e-16,50.407791,1.507069e-16,1.500421e-16,0,0,0,0,0,0
2.917253,-1.588213,-10.864647,1.891618e-12,0,0,1.891618e-12,-1.110223e-16,2.220446e-16,8.641776e-18,0,0,0,0,2.222687e-16,-1.112464e-16,1.667575e-16,-46.485268,2.223434e-16,1.96079e-16,0,0,0,0,0,0
2.964544,-1.588213,-10.841107,1.891618e-12,0,0,1.891618e-12,2.220446e-16,2.220446e-16,5.701954e-17,0,0,0,0,2.790641e-16,1.650251e-16,5.701954e-17,90,7.602605e-17,1.620116e-16,0,0,0,0,0,0
3.011834,-1.588213,-10.815773,1.891618e-12,0,0,1.891618e-12,0,-2.220446e-16,-9.67837e-18,0,0,0,0,4.210575e-19,-2.224657e-16,1.114434e-16,42.508919,1.485912e-16,1.48451e-16,0,0,0,0,0,0
3.059125,-1.588213,-10.788327,1.891618e-12,0,0,1.891618e-12,0,0,-2.135795e-17,0,0,0,0,2.135795e-17,-2.135795e-17,2.135795e-17,0,2.847727e-17,2.466204e-17,0,0,0,0,0,0
3.106415,-1.588213,-10.757566,1.891618e-12,0,0,1.891618e-12,-2.220446e-16,2.220446e-16,-1.08255e-17,0,0,0,0,2.223083e-16,-2.223083e-16,2.223083e-16,-43.604412,2.964111e-16,2.566996e-16,0,0,0,0,0,0
3.153705,-1.588213,-10.721797,1.891618e-12,0,0,1.891618e-12,-2.220446e-16,2.220446e-16,1.237862e-17,0,0,0,0,2.223894e-16,-2.223894e-16,2.223894e-16,-46.595421,2.965192e-16,2.567931e-16,0,0,0,0,0,0
3.200996,-1.588213,-10.678321,1.891618e-12,0,0,1.891618e-12,-2.220446e-16,0,1.950685e-17,0,0,0,0,1.700672e-18,-2.237453e-16,1.12723e-16,-49.982635,1.502973e-16,1.497336e-16,0,0,0,0,0,0
3.248286,-1.588213,-10.62747,1.891618e-12,0,0,1.891618e-12,-2.220446e-16,-2.220446e-16,-2.248617e-17,0,0,0,0,-1.995584e-16,-2.445308e-16,2.248617e-17,0,2.998156e-17,1.502896e-16,0,0,0,0,0,0
3.295577,-1.588213,-10.571051,1.891618e-12,0,0,1.891618e-12,2.220446e-16,0,8.768907e-18,0,0,0,0,2.223904e-16,-3.457602e-19,1.113681e-16,47.258018,1.484908e-16,1.483756e-16,0,0,0,0,0,0
3.342867,-1.588213,-10.506556,1.891618e-12,0,0,1.891618e-12,0,0,-2.298094e-18,0,0,0,0,2.298094e-18,-2.298094e-18,2.298094e-18,0,3.064125e-18,2.653611e-18,0,0,0,0,0,0
3.390158,-1.588213,-10.470515,1.891618e-12,0,0,1.891618e-12,2.220446e-16,-2.220446e-16,4.70407e-17,0,0,0,0,2.269727e-16,-2.269727e-16,2.269727e-16,50.980698,3.026303e-16,2.620856e-16,0,0,0,0,0,0
1.451249,-1.635504,-10.156321,1.891618e-12,0,0,1.891618e-12,0,2.220446e-16,-4.240045e-17,0,0,0,0,2.298657e-16,-7.82108e-18,1.188434e-16,-34.54884,1.584578e-16,1.559162e-16,0,0,0,0,0,0
1.49854,-1.635504,-10.274382,1.891618e-12,0,0,1.891618e-12,0,2.220446e-16,4.284823e-17,0,0,0,0,2.300262e-16,-7.981575e-18,1.190039e-16,-55.551861,1.586718e-16,1.560793e-16,0,0,0,0,0,0
1.54583,-1.635504,-10.379281,1.891618e-12,0,0,1.891618e-12,2.220446e-16,-1.110223e-16,4.344073e-17,0,0,0,0,2.276172e-16,-1.165949e-16,1.72106e-16,52.30999,2.294747e-16,2.021473e-16,0,0,0,0,0,0
1.593121,-1.635504,-10.466306,1.891618e-12,0,0,1.891618e-12,2.220446e-16,-1.110223e-16,1.747286e-17,0,0,0,0,2.229587e-16,-1.119364e-16,1.674476e-16,47.994808,2.232634e-16,1.968616e-16,0,0,0,0,0,0
1.640411,-1.635504,-10.537371,1.891618e-12,0,0,1.891618e-12,-1.110223e-16,-1.110223e-16,6.048339e-17,0,0,0,0,-5.053891e-17,-1.715057e-16,6.048339e-17,90,8.064452e-17,1.017637e-16,0,0,0,0,0,0
1.687701,-1.635504,-10.595213,1.891618e-12,0,0,1.891618e-12,-2.220446e-16,-2.220446e-16,-3.256936e-17,0,0,0,0,-1.894752e-16,-2.54614e-16,3.256936e-17,0,4.342582e-17,1.527323e-16,0,0,0,0,0,0
1.734992,-1.635504,-10.644085,1.891618e-12,0,0,1.891618e-12,-2.220446e-16,0,-6.363224e-18,0,0,0,0,1.82204e-19,-2.222268e-16,1.112045e-16,-43.359844,1.482727e-16,1.48212e-16,0,0,0,0,0,0
1.782282,-1.635504,-10.686741,1.891618e-12,0,0,1.891618e-12,0,-4.440892e-16,-1.383679e-17,0,0,0,0,4.307047e-19,-4.445199e-16,2.224753e-16,43.217102,2.966337e-16,2.964903e-16,0,0,0,0,0,0
1.829573,-1.635504,-10.724758,1.891618e-12,0,0,1.891618e-12,-2.220446e-16,-1.110223e-16,-4.264788e-19,0,0,0,0,-1.110207e-16,-2.220462e-16,5.551279e-17,-44.779911,7.401705e-17,1.281985e-16,0,0,0,0,0,0
1.876863,-1.635504,-10.758437,1.891618e-12,0,0,1.891618e-12,0,4.440892e-16,-9.282352e-18,0,0,0,0,4.442831e-16,-1.93935e-19,2.222385e-16,-43.803101,2.963181e-16,2.962534e-16,0,0,0,0,0,0
1.924154,-1.635504,-10.787835,1.891618e-12,0,0,1.891618e-12,-2.220446e-16,-1.110223e-16,-6.562555e-18,0,0,0,0,-1.106357e-16,-2.224312e-16,5.589772e-17,-41.62888,7.453029e-17,1.284213e-16,0,0,0,0,0,0
1.971444,-1.635504,-10.814049,1.891618e-12,0,0,1.891618e-12,-2.220446e-16,-2.220446e-16,-1.07132e-17,0,0,0,0,-2.113314e-16,-2.327578e-16,1.07132e-17,0,1.428427e-17,1.485457e-16,0,0,0,0,0,0
2.018735,-1.635504,-10.838979,1.891618e-12,0,0,1.891618e-12,0,2.220446e-16,-2.062162e-17,0,0,0,0,2.239435e-16,-1.898922e-18,1.129212e-16,-39.738811,1.505616e-16,1.499327e-16,0,0,0,0,0,0
2.066025,-1.635504,-10.863032,1.891618e-12,0,0,1.891618e-12,0,2.220446e-16,-1.657152e-19,0,0,0,0,2.220447e-16,-1.236757e-22,1.110224e-16,-44.957241,1.480299e-16,1.480299e-16,0,0,0,0,0,0
2.113316,-1.635504,-10.885605,1.891618e-12,0,0,1.891618e-12,0,-1.110223e-16,-1.991027e-17,0,0,0,0,3.462628e-18,-1.144849e-16,5.897378e-17,35.13427,7.86317e-17,7.750328e-17,0,0,0,0,0,0
2.160606,-1.635504,-10.906502,1.891618e-12,0,0,1.891618e-12,0,-1.110223e-16,-1.245619e-17,0,0,0,0,1.380365e-18,-1.124027e-16,5.689152e-17,38.676422,7.585535e-17,7.539945e-17,0,0,0,0,0,0
2.207896,-1.635504,-10.924661,1.891618e-12,0,0,1.891618e-12,-1.110223e-16,0,9.517593e-18,0,0,0,0,8.100036e-19,-1.118323e-16,5.632115e-17,-49.864491,7.509487e-17,7.482633e-17,0,0,0,0,0,0
2.255187,-1.635504,-10.9386,1.891618e-12,0,0,1.891618e-12,2.220446e-16,2.220446e-16,2.103851e-17,0,0,0,0,2.430831e-16,2.010061e-16,2.103851e-17,90,2.805135e-17,1.500099e-16,0,0,0,0,0,0
2.302477,-1.635504,-10.948048,1.891618e-12,0,0,1.891618e-12,-2.220446e-16,0,1.3512e-17,0,0,0,0,8.192179e-19,-2.228638e-16,1.118415e-16,-48.469536,1.49122e-16,1.488497e-16,0,0,0,0,0,0
2.349768,-1.635504,-10.952724,1.891618e-12,0,0,1.891618e-12,0,2.220446e-16,2.523811e-17,0,0,0,0,2.248771e-16,-2.832491e-18,1.138548e-16,-51.403549,1.518064e-16,1.508711e-16,0,0,0,0,0,0
2.397058,-1.635504,-10.953668,1.891618e-12,0,0,1.891618e-12,-1.110223e-16,2.220446e-16,1.983725e-17,0,0,0,0,2.232219e-16,-1.121996e-16,1.677108e-16,-48.396496,2.236144e-16,1.971601e-16,0,0,0,0,0,0
2.444349,-1.635504,-10.95365,1.891618e-12,0,0,1.891618e-12,4.440892e-16,2.220446e-16,1.712779e-17,0,0,0,0,4.454026e-16,2.207312e-16,1.123357e-16,49.385036,1.49781e-16,2.571567e-16,0,0,0,0,0,0
2.491639,-1.635504,-10.954313,1.891618e-12,0,0,1.891618e-12,0,-2.220446e-16,8.826788e-18,0,0,0,0,3.503326e-19,-2.223949e-16,1.113726e-16,47.272858,1.484969e-16,1.483802e-16,0,0,0,0,0,0
2.53893,-1.635504,-10.955453,1.891618e-12,0,0,1.891618e-12,-1.110223e-16,2.220446e-16,-3.214706e-17,0,0,0,0,2.25119e-16,-1.140967e-16,1.696079e-16,-39.537102,2.261438e-16,1.993121e-16,0,0,0,0,0,0
2.58622,-1.635504,-10.955304,1.891618e-12,0,0,1.891618e-12,0,0,5.958834e-18,0,0,0,0,5.958834e-18,-5.958834e-18,5.958834e-18,90,7.945111e-18,6.880668e-18,0,0,0,0,0,0
2.633511,-1.635504,-10.951635,1.891618e-12,0,0,1.891618e-12,0,0,-1.640706e-17,0,0,0,0,1.640706e-17,-1.640706e-17,1.640706e-17,0,2.187609e-17,1.894525e-17,0,0,0,0,0,0
2.680801,-1.635504,-10.943498,1.891618e-12,0,0,1.891618e-12,2.220446e-16,-1.110223e-16,-2.602957e-17,0,0,0,0,2.240666e-16,-1.130443e-16,1.685554e-16,40.558208,2.247406e-16,1.981181e-16,0,0,0,0,0,0
2.728091,-1.635504,-10.93233,1.891618e-12,0,0,1.891618e-12,0,0,-5.642771e-17,0,0,0,0,5.642771e-17,-5.642771e-17,5.642771e-17,0,7.523694e-17,6.51571e-17,0,0,0,0,0,0
2.775382,-1.635504,-10.919588,1.891618e-12,0,0,1.891618e-12,-1.110223e-16,2.220446e-16,-2.925462e-17,0,0,0,0,2.245946e-16,-1.135723e-16,1.690835e-16,-40.018307,2.254446e-16,1.987172e-16,0,0,0,0,0,0
2.822672,-1.635504,-10.904834,1.891618e-12,0,0,1.891618e-12,0,0,1.795062e-17,0,0,0,0,1.795062e-17,-1.795062e-17,1.795062e-17,90,2.393416e-17,2.072759e-17,0,0,0,0,0,0
2.869963,-1.635504,-10.887158,1.891618e-12,0,0,1.891618e-12,-2.220446e-16,0,-5.61691e-18,0,0,0,0,1.419963e-19,-2.221866e-16,1.111643e-16,-43.551861,1.482191e-16,1.481718e-16,0,0,0,0,0,0
2.917253,-1.635504,-10.866322,1.891618e-12,0,0,1.891618e-12,2.220446e-16,0,2.221114e-17,0,0,0,0,2.242446e-16,-2.199985e-18,1.132223e-16,50.656624,1.509631e-16,1.502351e-16,0,0,0,0,0,0
2.964544,-1.635504,-10.842844,1.891618e-12,0,0,1.891618e-12,0,2.220446e-16,-2.561585e-17,0,0,0,0,2.249614e-16,-2.91682e-18,1.139391e-16,-38.503838,1.519188e-16,1.509559e-16,0,0,0,0,0,0
3.011834,-1.635504,-10.817756,1.891618e-12,0,0,1.891618e-12,0,0,1.358387e-17,0,0,0,0,1.358387e-17,-1.358387e-17,1.358387e-17,90,1.811183e-17,1.56853e-17,0,0,0,0,0,0
3.059125,-1.635504,-10.790872,1.891618e-12,0,0,1.891618e-12,2.220446e-16,0,-3.348112e-17,0,0,0,0,2.269832e-16,-4.938626e-18,1.159609e-16,36.609104,1.546146e-16,1.529949e-16,0,0,0,0,0,0
3.106415,-1.635504,-10.760526,1.891618e-12,0,0,1.891618e-12,0,2.220446e-16,1.042472e-18,0,0,0,0,2.220495e-16,-4.894169e-21,1.110272e-16,-45.26899,1.480363e-16,1.480346e-16,0,0,0,0,0,0
3.153705,-1.635504,-10.724724,1.891618e-12,0,0,1.891618e-12,2.220446e-16,0,2.143772e-17,0,0,0,0,2.240954e-16,-2.050804e-18,1.130731e-16,50.464478,1.507641e-16,1.500852e-16,0,0,0,0,0,0
3.200996,-1.635504,-10.680831,1.891618e-12,0,0,1.891618e-12,-5.551115e-16,-1.110223e-16,2.963392e-17,0,0,0,0,-1.090536e-16,-5.570802e-16,2.240133e-16,-48.800869,2.986845e-16,3.409004e-16,0,0,0,0,0,0
3.248286,-1.635504,-10.629307,1.891618e-12,0,0,1.891618e-12,0,0,-6.302431e-19,0,0,0,0,6.302431e-19,-6.302431e-19,6.302431e-19,0,8.403241e-19,7.27742e-19,0,0,0,0,0,0
3.295577,-1.635504,-10.572076,1.891618e-12,0,0,1.891618e-12,0,2.220446e-16,3.086903e-17,0,0,0,0,2.262562e-16,-4.211584e-18,1.152339e-16,-52.769123,1.536452e-16,1.522607e-16,0,0,0,0,0,0
3.342867,-1.635504,-10.507122,1.891618e-12,0,0,1.891618e-12,0,0,-4.285728e-17,0,0,0,0,4.285728e-17,-4.285728e-17,4.285728e-17,0,5.714303e-17,4.948732e-17,0,0,0,0,0,0
3.390158,-1.635504,-10.471136,1.891618e-12,0,0,1.891618e-12,0,2.220446e-16,-4.971365e-17,0,0,0,0,2.326669e-16,-1.062226e-17,1.216446e-16,-32.939041,1.621928e-16,1.587705e-16,0,0,0,0,0,0
1.451249,-1.682794,-10.157863,1.891618e-12,0,0,1.891618e-12,0,2.220446e-16,-8.166685e-17,0,0,0,0,2.488462e-16,-2.680159e-17,1.378239e-16,-26.831093,1.837652e-16,1.755148e-16,0,0,0,0,0,0
1.49854,-1.682794,-10.277315,1.891618e-12,0,0,1.891618e-12,0,-2.220446e-16,5.242965e-18,0,0,0,0,1.237291e-19,-2.221683e-16,1.11146e-16,46.351875,1.481947e-16,1.481535e-16,0,0,0,0,0,0
1.54583,-1.682794,-10.382114,1.891618e-12,0,0,1.891618e-12,-1.110223e-16,4.440892e-16,4.961875e-17,0,0,0,0,4.484895e-16,-1.154226e-16,2.819561e-16,-50.06786,3.759414e-16,3.439839e-16,0,0,0,0,0,0
1.593121,-1.682794,-10.468994,1.891618e-12,0,0,1.891618e-12,2.220446e-16,0,6.349512e-17,0,0,0,0,2.389191e-16,-1.687446e-17,1.278968e-16,59.882904,1.70529e-16,1.651917e-16,0,0,0,0,0,0
1.640411,-1.682794,-10.539673,1.891618e-12,0,0,1.891618e-12,0,-1.110223e-16,-7.380495e-18,0,0,0,0,4.884882e-19,-1.115108e-16,5.599964e-17,41.213322,7.466619e-17,7.450389e-17,0,0,0,0,0,0
1.687701,-1.682794,-10.597107,1.891618e-12,0,0,1.891618e-12,0,0,4.60572e-17,0,0,0,0,4.60572e-17,-4.60572e-17,4.60572e-17,90,6.14096e-17,5.318227e-17,0,0,0,0,0,0
1.734992,-1.682794,-10.645944,1.891618e-12,0,0,1.891618e-12,0,2.220446e-16,4.864769e-17,0,0,0,0,2.322351e-16,-1.019052e-17,1.212128e-16,-56.83102,1.616171e-16,1.583296e-16,0,0,0,0,0,0
1.782282,-1.682794,-10.68865,1.891618e-12,0,0,1.891618e-12,2.220446e-16,-2.220446e-16,-2.304578e-17,0,0,0,0,2.232374e-16,-2.232374e-16,2.232374e-16,42.037273,2.976498e-16,2.577723e-16,0,0,0,0,0,0
1.829573,-1.682794,-10.726968,1.891618e-12,0,0,1.891618e-12,4.440892e-16,2.220446e-16,3.550292e-17,0,0,0,0,4.496276e-16,2.165061e-16,1.165608e-16,53.866669,1.554143e-16,2.596517e-16,0,0,0,0,0,0
1.876863,-1.682794,-10.761185,1.891618e-12,0,0,1.891618e-12,-2.220446e-16,0,-1.520555e-17,0,0,0,0,1.036434e-18,-2.23081e-16,1.120587e-16,-41.100662,1.494116e-16,1.490674e-16,0,0,0,0,0,0
1.924154,-1.682794,-10.791008,1.891618e-12,0,0,1.891618e-12,2.220446e-16,-1.110223e-16,-1.711602e-17,0,0,0,0,2.229219e-16,-1.118996e-16,1.674107e-16,42.065922,2.232143e-16,1.968198e-16,0,0,0,0,0,0
1.971444,-1.682794,-10.817349,1.891618e-12,0,0,1.891618e-12,0,-2.220446e-16,1.369923e-17,0,0,0,0,8.419931e-19,-2.228866e-16,1.118643e-16,48.517136,1.491524e-16,1.488725e-16,0,0,0,0,0,0
2.018735,-1.682794,-10.841984,1.891618e-12,0,0,1.891618e-12,2.220446e-16,0,3.773708e-17,0,0,0,0,2.282829e-16,-6.238256e-18,1.172606e-16,54.386585,1.563474e-16,1.5431e-16,0,0,0,0,0,0
2.066025,-1.682794,-10.864915,1.891618e-12,0,0,1.891618e-12,0,-2.220446e-16,-2.839672e-17,0,0,0,0,3.574055e-18,-2.256187e-16,1.145964e-16,37.826385,1.527951e-16,1.516178e-16,0,0,0,0,0,0
2.113316,-1.682794,-10.886425,1.891618e-12,0,0,1.891618e-12,0,-1.110223e-16,-3.004875e-17,0,0,0,0,7.611072e-18,-1.186334e-16,6.312223e-17,30.786434,8.416297e-17,8.174414e-17,0,0,0,0,0,0
2.160606,-1.682794,-10.906517,1.891618e-12,0,0,1.891618e-12,-1.110223e-16,4.440892e-16,-2.60365e-17,0,0,0,0,4.453077e-16,-1.122408e-16,2.787743e-16,-42.320488,3.71699e-16,3.405086e-16,0,0,0,0,0,0
2.207896,-1.682794,-10.924655,1.891618e-12,0,0,1.891618e-12,2.220446e-16,2.220446e-16,-5.201597e-18,0,0,0,0,2.272462e-16,2.16843e-16,5.201597e-18,0,6.935462e-18,1.481515e-16,0,0,0,0,0,0
2.255187,-1.682794,-10.939401,1.891618e-12,0,0,1.891618e-12,-3.330669e-16,0,-2.068463e-17,0,0,0,0,1.279671e-18,-3.343466e-16,1.678131e-16,-41.459862,2.237508e-16,2.233255e-16,0,0,0,0,0,0
2.302477,-1.682794,-10.949665,1.891618e-12,0,0,1.891618e-12,2.220446e-16,2.220446e-16,-2.812479e-18,0,0,0,0,2.248571e-16,2.192321e-16,2.812479e-18,0,3.749972e-18,1.480654e-16,0,0,0,0,0,0
2.349768,-1.682794,-10.95419,1.891618e-12,0,0,1.891618e-12,2.220446e-16,2.220446e-16,1.432802e-18,0,0,0,0,2.234774e-16,2.206118e-16,1.432802e-18,90,1.910403e-18,1.48039e-16,0,0,0,0,0,0
2.397058,-1.682794,-10.954303,1.891618e-12,0,0,1.891618e-12,-1.110223e-16,-1.110223e-16,-1.381146e-17,0,0,0,0,-9.721083e-17,-1.248338e-16,1.381146e-17,0,1.841529e-17,7.571356e-17,0,0,0,0,0,0
2.444349,-1.682794,-10.953184,1.891618e-12,0,0,1.891618e-12,0,-2.220446e-16,2.27459e-18,0,0,0,0,2.329811e-20,-2.220679e-16,1.110456e-16,45.586845,1.480608e-16,1.48053e-16,0,0,0,0,0,0
2.491639,-1.682794,-10.953232,1.891618e-12,0,0,1.891618e-12,2.220446e-16,2.220446e-16,-7.071623e-18,0,0,0,0,2.291162e-16,2.14973e-16,7.071623e-18,0,9.428831e-18,1.482548e-16,0,0,0,0,0,0
2.53893,-1.682794,-10.954564,1.891618e-12,0,0,1.891618e-12,4.440892e-16,0,-1.775307e-18,0,0,0,0,4.440963e-16,-7.096916e-21,2.220517e-16,44.770958,2.960689e-16,2.960666e-16,0,0,0,0,0,0
2.58622,-1.682794,-10.95486,1.891618e-12,0,0,1.891618e-12,2.220446e-16,0,-8.317771e-18,0,0,0,0,2.223558e-16,-3.111469e-19,1.113335e-16,42.857708,1.484446e-16,1.48341e-16,0,0,0,0,0,0
2.633511,-1.682794,-10.951413,1.891618e-12,0,0,1.891618e-12,-1.110223e-16,-1.110223e-16,-4.277339e-17,0,0,0,0,-6.824891e-17,-1.537957e-16,4.277339e-17,0,5.703119e-17,8.8981e-17,0,0,0,0,0,0
2.680801,-1.682794,-10.943337,1.891618e-12,0,0,1.891618e-12,0,2.220446e-16,8.641988e-18,0,0,0,0,2.223805e-16,-3.358387e-19,1.113581e-16,-47.225468,1.484775e-16,1.483657e-16,0,0,0,0,0,0
2.728091,-1.682794,-10.932183,1.891618e-12,0,0,1.891618e-12,-1.110223e-16,0,-4.293816e-17,0,0,0,0,1.466843e-17,-1.256907e-16,7.017958e-17,-26.138933,9.357278e-17,8.908674e-17,0,0,0,0,0,0
2.775382,-1.682794,-10.919706,1.891618e-12,0,0,1.891618e-12,0,0,-1.422243e-17,0,0,0,0,1.422243e-17,-1.422243e-17,1.422243e-17,0,1.896323e-17,1.642264e-17,0,0,0,0,0,0
2.822672,-1.682794,-10.905517,1.891618e-12,0,0,1.891618e-12,2.220446e-16,0,-6.029359e-17,0,0,0,0,2.373602e-16,-1.531561e-17,1.263379e-16,30.74733,1.684506e-16,1.635845e-16,0,0,0,0,0,0
2.869963,-1.682794,-10.888287,1.891618e-12,0,0,1.891618e-12,2.220446e-16,-2.220446e-16,-1.063226e-17,0,0,0,0,2.22299e-16,-2.22299e-16,2.22299e-16,43.629288,2.963987e-16,2.566888e-16,0,0,0,0,0,0
2.917253,-1.682794,-10.867822,1.891618e-12,0,0,1.891618e-12,2.220446e-16,-1.110223e-16,-2.424798e-17,0,0,0,0,2.238007e-16,-1.127783e-16,1.682895e-16,40.857853,2.24386e-16,1.978165e-16,0,0,0,0,0,0
2.964544,-1.682794,-10.844521,1.891618e-12,0,0,1.891618e-12,2.220446e-16,-1.110223e-16,1.22162e-17,0,0,0,0,2.224921e-16,-1.114698e-16,1.669809e-16,47.097733,2.226412e-16,1.963323e-16,0,0,0,0,0,0
3.011834,-1.682794,-10.819454,1.891618e-12,0,0,1.891618e-12,0,2.220446e-16,3.246248e-18,0,0,0,0,2.220921e-16,-4.744935e-20,1.110697e-16,-45.837414,1.48093e-16,1.480772e-16,0,0,0,0,0,0
3.059125,-1.682794,-10.792625,1.891618e-12,0,0,1.891618e-12,2.220446e-16,2.220446e-16,-1.873772e-17,0,0,0,0,2.407823e-16,2.033069e-16,1.873772e-17,0,2.498362e-17,1.496026e-16,0,0,0,0,0,0
3.106415,-1.682794,-10.762182,1.891618e-12,0,0,1.891618e-12,-4.440892e-16,0,-1.770368e-17,0,0,0,0,7.046416e-19,-4.447938e-16,2.227493e-16,-42.720718,2.96999e-16,2.967644e-16,0,0,0,0,0,0
3.153705,-1.682794,-10.726203,1.891618e-12,0,0,1.891618e-12,0,-2.220446e-16,2.000765e-17,0,0,0,0,1.788415e-18,-2.23833e-16,1.128107e-16,50.107895,1.504143e-16,1.498217e-16,0,0,0,0,0,0
3.200996,-1.682794,-10.681935,1.891618e-12,0,0,1.891618e-12,2.220446e-16,0,-1.741929e-17,0,0,0,0,2.234028e-16,-1.358227e-18,1.123805e-16,40.541523,1.498407e-16,1.4939e-16,0,0,0,0,0,0
3.248286,-1.682794,-10.63003,1.891618e-12,0,0,1.891618e-12,-2.220446e-16,2.220446e-16,-3.240045e-17,0,0,0,0,2.243961e-16,-2.243961e-16,2.243961e-16,-40.849033,2.991947e-16,2.591103e-16,0,0,0,0,0,0
3.295577,-1.682794,-10.573215,1.891618e-12,0,0,1.891618e-12,2.220446e-16,2.220446e-16,-3.93109e-17,0,0,0,0,2.613555e-16,1.827337e-16,3.93109e-17,0,5.241453e-17,1.54833e-16,0,0,0,0,0,0
3.342867,-1.682794,-10.508768,1.891618e-12,0,0,1.891618e-12,-3.330669e-16,2.220446e-16,-7.320236e-18,0,0,0,0,2.221411e-16,-3.331634e-16,2.776523e-16,-44.244617,3.70203e-16,3.22734e-16,0,0,0,0,0,0
3.390158,-1.682794,-10.472705,1.891618e-12,0,0,1.891618e-12,-4.440892e-16,-1.110223e-16,-1.416732e-17,0,0,0,0,-1.104208e-16,-4.446908e-16,1.67135e-16,-42.568726,2.228466e-16,2.673653e-16,0,0,0,0,0,0
1.451249,-1.730084,-10.160723,1.891618e-12,0,0,1.891618e-12,0,2.220446e-16,-6.190254e-18,0,0,0,0,2.222171e-16,-1.724406e-19,1.111947e-16,-43.404335,1.482597e-16,1.482022e-16,0,0,0,0,0,0
1.49854,-1.730084,-10.280287,1.891618e-12,0,0,1.891618e-12,6.661338e-16,0,3.946847e-17,0,0,0,0,6.684642e-16,-2.330357e-18,3.353973e-16,48.379021,4.471963e-16,4.464216e-16,0,0,0,0,0,0
1.54583,-1.730084,-10.384631,1.891618e-12,0,0,1.891618e-12,2.220446e-16,-2.220446e-16,9.541059e-18,0,0,0,0,2.222495e-16,-2.222495e-16,2.222495e-16,46.230217,2.963327e-16,2.566316e-16,0,0,0,0,0,0
1.593121,-1.730084,-10.471245,1.891618e-12,0,0,1.891618e-12,-1.110223e-16,-2.220446e-16,-2.765912e-17,0,0,0,0,-1.045132e-16,-2.285537e-16,6.202028e-17,31.757322,8.269371e-17,1.32116e-16,0,0,0,0,0,0
1.640411,-1.730084,-10.541075,1.891618e-12,0,0,1.891618e-12,0,-2.220446e-16,2.507822e-17,0,0,0,0,2.797154e-18,-2.248417e-16,1.138195e-16,51.364304,1.517593e-16,1.508355e-16,0,0,0,0,0,0
1.687701,-1.730084,-10.597954,1.891618e-12,0,0,1.891618e-12,0,0,-2.481833e-17,0,0,0,0,2.481833e-17,-2.481833e-17,2.481833e-17,0,3.30911e-17,2.865774e-17,0,0,0,0,0,0
1.734992,-1.730084,-10.646494,1.891618e-12,0,0,1.891618e-12,-2.220446e-16,0,-9.740316e-18,0,0,0,0,4.264544e-19,-2.224711e-16,1.114488e-16,-42.493053,1.485983e-16,1.484564e-16,0,0,0,0,0,0
1.782282,-1.730084,-10.689317,1.891618e-12,0,0,1.891618e-12,2.220446e-16,-1.110223e-16,4.714803e-17,0,0,0,0,2.285901e-16,-1.175678e-16,1.73079e-16,52.903793,2.30772e-16,2.032519e-16,0,0,0,0,0,0
1.829573,-1.730084,-10.72806,1.891618e-12,0,0,1.891618e-12,0,0,-6.371138e-18,0,0,0,0,6.371138e-18,-6.371138e-18,6.371138e-18,0,8.49485e-18,7.356757e-18,0,0,0,0,0,0
1.876863,-1.730084,-10.762841,1.891618e-12,0,0,1.891618e-12,2.220446e-16,0,7.340429e-19,0,0,0,0,2.22047e-16,-2.426599e-21,1.110247e-16,45.189407,1.48033e-16,1.480322e-16,0,0,0,0,0,0
1.924154,-1.730084,-10.793228,1.891618e-12,0,0,1.891618e-12,0,0,-1.354663e-17,0,0,0,0,1.354663e-17,-1.354663e-17,1.354663e-17,0,1.806218e-17,1.56423e-17,0,0,0,0,0,0
1.971444,-1.730084,-10.819965,1.891618e-12,0,0,1.891618e-12,0,0,5.398444e-17,0,0,0,0,5.398444e-17,-5.398444e-17,5.398444e-17,90,7.197925e-17,6.233585e-17,0,0,0,0,0,0
2.018735,-1.730084,-10.84428,1.891618e-12,0,0,1.891618e-12,0,-1.110223e-16,2.246104e-17,0,0,0,0,4.371952e-18,-1.153942e-16,5.988311e-17,56.014671,7.984414e-17,7.842745e-17,0,0,0,0,0,0
2.066025,-1.730084,-10.866402,1.891618e-12,0,0,1.891618e-12,2.220446e-16,2.220446e-16,1.008074e-18,0,0,0,0,2.230527e-16,2.210365e-16,1.008074e-18,90,1.344098e-18,1.480343e-16,0,0,0,0,0,0
2.113316,-1.730084,-10.887115,1.891618e-12,0,0,1.891618e-12,2.220446e-16,-1.110223e-16,-1.18874e-17,0,0,0,0,2.224683e-16,-1.11446e-16,1.669572e-16,42.958534,2.226096e-16,1.963054e-16,0,0,0,0,0,0
2.160606,-1.730084,-10.906737,1.891618e-12,0,0,1.891618e-12,2.220446e-16,-1.110223e-16,-2.43531e-17,0,0,0,0,2.238158e-16,-1.127935e-16,1.683047e-16,40.840145,2.244062e-16,1.978337e-16,0,0,0,0,0,0
2.207896,-1.730084,-10.925111,1.891618e-12,0,0,1.891618e-12,2.220446e-16,-4.440892e-16,2.451119e-17,0,0,0,0,2.229453e-16,-4.449899e-16,3.339676e-16,47.104473,4.452901e-16,3.926712e-16,0,0,0,0,0,0
2.255187,-1.730084,-10.940947,1.891618e-12,0,0,1.891618e-12,0,0,9.285636e-20,0,0,0,0,9.285636e-20,-9.285636e-20,9.285636e-20,90,1.238085e-19,1.072213e-19,0,0,0,0,0,0
2.302477,-1.730084,-10.952104,1.891618e-12,0,0,1.891618e-12,2.220446e-16,0,4.626208e-17,0,0,0,0,2.312975e-16,-9.252932e-18,1.202752e-16,56.310547,1.60367e-16,1.573734e-16,0,0,0,0,0,0
2.349768,-1.730084,-10.956638,1.891618e-12,0,0,1.891618e-12,0,-1.110223e-16,-3.843795e-18,0,0,0,0,1.329201e-19,-1.111552e-16,5.564407e-17,43.019478,7.419209e-17,7.414783e-17,0,0,0,0,0,0
2.397058,-1.730084,-10.955895,1.891618e-12,0,0,1.891618e-12,0,4.440892e-16,-2.544383e-18,0,0,0,0,4.441038e-16,-1.457741e-20,2.220592e-16,-44.671741,2.960789e-16,2.96074e-16,0,0,0,0,0,0
2.444349,-1.730084,-10.953472,1.891618e-12,0,0,1.891618e-12,0,0,2.402985e-17,0,0,0,0,2.402985e-17,-2.402985e-17,2.402985e-17,90,3.203981e-17,2.774729e-17,0,0,0,0,0,0
2.491639,-1.730084,-10.952653,1.891618e-12,0,0,1.891618e-12,-2.220446e-16,0,4.329851e-18,0,0,0,0,8.439964e-20,-2.22129e-16,1.111067e-16,-46.116695,1.481423e-16,1.481141e-16,0,0,0,0,0,0
2.53893,-1.730084,-10.953856,1.891618e-12,0,0,1.891618e-12,-1.110223e-16,0,-8.929106e-18,0,0,0,0,7.135483e-19,-1.117358e-16,5.62247e-17,-40.431053,7.496627e-17,7.472955e-17,0,0,0,0,0,0
2.58622,-1.730084,-10.95442,1.891618e-12,0,0,1.891618e-12,0,2.220446e-16,-6.150264e-18,0,0,0,0,2.222148e-16,-1.702216e-19,1.111925e-16,-43.414623,1.482567e-16,1.482e-16,0,0,0,0,0,0
2.633511,-1.730084,-10.951085,1.891618e-12,0,0,1.891618e-12,0,2.220446e-16,6.268408e-19,0,0,0,0,2.220464e-16,-1.769582e-21,1.110241e-16,-45.161747,1.480321e-16,1.480315e-16,0,0,0,0,0,0
2.680801,-1.730084,-10.942906,1.891618e-12,0,0,1.891618e-12,0,2.220446e-16,-3.397005e-18,0,0,0,0,2.220966e-16,-5.195776e-20,1.110743e-16,-44.123718,1.48099e-16,1.480817e-16,0,0,0,0,0,0
2.728091,-1.730084,-10.931625,1.891618e-12,0,0,1.891618e-12,-1.110223e-16,-1.110223e-16,-4.48732e-17,0,0,0,0,-6.61491e-17,-1.558955e-16,4.48732e-17,0,5.983093e-17,9.034935e-17,0,0,0,0,0,0
2.775382,-1.730084,-10.919334,1.891618e-12,0,0,1.891618e-12,-1.110223e-16,2.220446e-16,7.868021e-18,0,0,0,0,2.222304e-16,-1.112081e-16,1.667192e-16,-46.352489,2.222923e-16,1.960356e-16,0,0,0,0,0,0
2.822672,-1.730084,-10.905759,1.891618e-12,0,0,1.891618e-12,2.220446e-16,0,3.109202e-17,0,0,0,0,2.263161e-16,-4.271518e-18,1.152938e-16,52.822506,1.537251e-16,1.523212e-16,0,0,0,0,0,0
2.869963,-1.730084,-10.889349,1.891618e-12,0,0,1.891618e-12,0,2.220446e-16,-2.08712e-17,0,0,0,0,2.239894e-16,-1.944767e-18,1.129671e-16,-39.676582,1.506228e-16,1.499787e-16,0,0,0,0,0,0
2.917253,-1.730084,-10.86958,1.891618e-12,0,0,1.891618e-12,-2.220446e-16,-1.110223e-16,8.860023e-18,0,0,0,0,-1.103197e-16,-2.227472e-16,5.621377e-17,-49.534187,7.49517e-17,1.286051e-16,0,0,0,0,0,0
2.964544,-1.730084,-10.846656,1.891618e-12,0,0,1.891618e-12,2.220446e-16,0,-1.822795e-17,0,0,0,0,2.23531e-16,-1.486408e-18,1.125087e-16,40.3381,1.500116e-16,1.495186e-16,0,0,0,0,0,0
3.011834,-1.730084,-10.821421,1.891618e-12,0,0,1.891618e-12,0,2.220446e-16,-3.056535e-18,0,0,0,0,2.220867e-16,-4.206647e-20,1.110644e-16,-44.211498,1.480858e-16,1.480718e-16,0,0,0,0,0,0
3.059125,-1.730084,-10.793929,1.891618e-12,0,0,1.891618e-12,2.220446e-16,-2.220446e-16,-1.635013e-17,0,0,0,0,2.226458e-16,-2.226458e-16,2.226458e-16,42.894329,2.96861e-16,2.570892e-16,0,0,0,0,0,0
3.106415,-1.730084,-10.762608,1.891618e-12,0,0,1.891618e-12,-4.440892e-16,0,1.889787e-17,0,0,0,0,8.027335e-19,-4.448919e-16,2.228473e-16,-47.432316,2.971298e-16,2.968626e-16,0,0,0,0,0,0
3.153705,-1.730084,-10.72596,1.891618e-12,0,0,1.891618e-12,0,0,1.788836e-17,0,0,0,0,1.788836e-17,-1.788836e-17,1.788836e-17,90,2.385114e-17,2.06557e-17,0,0,0,0,0,0
3.200996,-1.730084,-10.682098,1.891618e-12,0,0,1.891618e-12,2.220446e-16,2.220446e-16,3.939582e-20,0,0,0,0,2.22084e-16,2.220052e-16,3.939582e-20,90,5.252776e-20,1.480297e-16,0,0,0,0,0,0
3.248286,-1.730084,-10.631319,1.891618e-12,0,0,1.891618e-12,2.220446e-16,4.440892e-16,9.565338e-18,0,0,0,0,4.445005e-16,2.216333e-16,1.114336e-16,-47.462132,1.485781e-16,2.566328e-16,0,0,0,0,0,0
3.295577,-1.730084,-10.575367,1.891618e-12,0,0,1.891618e-12,-1.110223e-16,0,-1.614211e-17,0,0,0,0,2.299363e-18,-1.133217e-16,5.781051e-17,-36.89304,7.708069e-17,7.632577e-17,0,0,0,0,0,0
3.342867,-1.730084,-10.511477,1.891618e-12,0,0,1.891618e-12,0,-1.110223e-16,5.442645e-17,0,0,0,0,2.223026e-17,-1.332526e-16,7.774141e-17,67.217354,1.036552e-16,9.709713e-17,0,0,0,0,0,0
3.390158,-1.730084,-10.47581,1.891618e-12,0,0,1.891618e-12,2.220446e-16,-1.110223e-16,-3.122306e-17,0,0,0,0,2.249463e-16,-1.13924e-16,1.694352e-16,39.690498,2.259135e-16,1.991162e-16,0,0,0,0,0,0
1.451249,-1.777375,-10.159978,1.891618e-12,0,0,1.891618e-12,0,0,-2.652744e-17,0,0,0,0,2.652744e-17,-2.652744e-17,2.652744e-17,0,3.536992e-17,3.063125e-17,0,0,0,0,0,0
1.49854,-1.777375,-10.282734,1.891618e-12,0,0,1.891618e-12,-2.220446e-16,-1.110223e-16,1.969143e-17,0,0,0,0,-1.076332e-16,-2.254337e-16,5.890026e-17,-54.765541,7.853368e-17,1.301983e-16,0,0,0,0,0,0
1.54583,-1.777375,-10.385998,1.891618e-12,0,0,1.891618e-12,-1.110223e-16,2.220446e-16,4.011673e-17,0,0,0,0,2.268084e-16,-1.157861e-16,1.712972e-16,-51.772049,2.283963e-16,2.012292e-16,0,0,0,0,0,0
1.593121,-1.777375,-10.47174,1.891618e-12,0,0,1.891618e-12,-1.110223e-16,0,-2.409353e-17,0,0,0,0,5.003196e-18,-1.160255e-16,6.051435e-17,-33.268845,8.06858e-17,7.907084e-17,0,0,0,0,0,0
1.640411,-1.777375,-10.541061,1.891618e-12,0,0,1.891618e-12,2.220446e-16,2.220446e-16,6.658092e-17,0,0,0,0,2.886255e-16,1.554637e-16,6.658092e-17,90,8.877456e-17,1.668038e-16,0,0,0,0,0,0
1.687701,-1.777375,-10.597971,1.891618e-12,0,0,1.891618e-12,2.220446e-16,0,-1.021934e-17,0,0,0,0,2.225139e-16,-4.693411e-19,1.114916e-16,42.370438,1.486555e-16,1.484993e-16,0,0,0,0,0,0
1.734992,-1.777375,-10.646712,1.891618e-12,0,0,1.891618e-12,4.440892e-16,2.220446e-16,1.700995e-18,0,0,0,0,4.441022e-16,2.220316e-16,1.110353e-16,45.438885,1.480471e-16,2.564025e-16,0,0,0,0,0,0
1.782282,-1.777375,-10.689824,1.891618e-12,0,0,1.891618e-12,0,-1.110223e-16,-4.36834e-17,0,0,0,0,1.512685e-17,-1.261492e-16,7.0638e-17,25.899862,9.418401e-17,8.956853e-17,0,0,0,0,0,0
1.829573,-1.777375,-10.72891,1.891618e-12,0,0,1.891618e-12,0,2.220446e-16,1.836579e-17,0,0,0,0,2.235534e-16,-1.508821e-18,1.125311e-16,-49.696526,1.500415e-16,1.495411e-16,0,0,0,0,0,0
1.876863,-1.777375,-10.763997,1.891618e-12,0,0,1.891618e-12,4.440892e-16,-1.110223e-16,-5.386587e-18,0,0,0,0,4.441415e-16,-1.110746e-16,2.77608e-16,44.444096,3.70144e-16,3.392358e-16,0,0,0,0,0,0
1.924154,-1.777375,-10.794743,1.891618e-12,0,0,1.891618e-12,2.220446e-16,2.220446e-16,-9.202162e-18,0,0,0,0,2.312468e-16,2.128424e-16,9.202162e-18,0,1.226955e-17,1.484106e-16,0,0,0,0,0,0
1.971444,-1.777375,-10.822068,1.891618e-12,0,0,1.891618e-12,2.220446e-16,-1.110223e-16,1.877985e-17,0,0,0,0,2.231002e-16,-1.120779e-16,1.67589e-16,48.21701,2.23452e-16,1.97022e-16,0,0,0,0,0,0
2.018735,-1.777375,-10.846546,1.891618e-12,0,0,1.891618e-12,2.220446e-16,0,-1.03307e-17,0,0,0,0,2.225242e-16,-4.796038e-19,1.115019e-16,42.341946,1.486692e-16,1.485096e-16,0,0,0,0,0,0
2.066025,-1.777375,-10.868416,1.891618e-12,0,0,1.891618e-12,2.220446e-16,-1.110223e-16,-4.290549e-17,0,0,0,0,2.274829e-16,-1.164606e-16,1.719717e-16,37.776287,2.292956e-16,2.019948e-16,0,0,0,0,0,0
2.113316,-1.777375,-10.888499,1.891618e-12,0,0,1.891618e-12,-2.220446e-16,0,-1.700966e-17,0,0,0,0,1.295462e-18,-2.233401e-16,1.123178e-16,-40.644741,1.49757e-16,1.493271e-16,0,0,0,0,0,0
2.160606,-1.777375,-10.907686,1.891618e-12,0,0,1.891618e-12,2.220446e-16,-1.110223e-16,6.417137e-18,0,0,0,0,2.221682e-16,-1.111459e-16,1.66657e-16,46.103359,2.222094e-16,1.959651e-16,0,0,0,0,0,0
2.207896,-1.777375,-10.926006,1.891618e-12,0,0,1.891618e-12,2.220446e-16,-1.110223e-16,-3.580755e-17,0,0,0,0,2.258507e-16,-1.148284e-16,1.703396e-16,38.93259,2.271194e-16,2.001424e-16,0,0,0,0,0,0
2.255187,-1.777375,-10.942518,1.891618e-12,0,0,1.891618e-12,-1.110223e-16,4.440892e-16,-1.355485e-17,0,0,0,0,4.4442e-16,-1.113531e-16,2.778865e-16,-43.602047,3.705154e-16,3.395397e-16,0,0,0,0,0,0
2.302477,-1.777375,-10.954268,1.891618e-12,0,0,1.891618e-12,-1.110223e-16,0,-2.700519e-17,0,0,0,0,6.220268e-18,-1.172426e-16,6.173142e-17,-32.02895,8.230856e-17,8.031547e-17,0,0,0,0,0,0
2.349768,-1.777375,-10.958773,1.891618e-12,0,0,1.891618e-12,-2.220446e-16,-1.110223e-16,3.101602e-17,0,0,0,0,-1.029451e-16,-2.301218e-16,6.358838e-17,-59.596809,8.47845e-17,1.331062e-16,0,0,0,0,0,0
2.397058,-1.777375,-10.957457,1.891618e-12,0,0,1.891618e-12,-1.110223e-16,-1.110223e-16,5.252826e-18,0,0,0,0,-1.057695e-16,-1.162751e-16,5.252826e-18,90,7.003767e-18,7.426298e-17,0,0,0,0,0,0
2.444349,-1.777375,-10.95442,1.891618e-12,0,0,1.891618e-12,2.220446e-16,0,-1.873034e-17,0,0,0,0,2.236135e-16,-1.568893e-18,1.125912e-16,40.21196,1.501216e-16,1.496014e-16,0,0,0,0,0,0
2.491639,-1.777375,-10.953135,1.891618e-12,0,0,1.891618e-12,-2.220446e-16,2.220446e-16,1.356482e-17,0,0,0,0,2.224586e-16,-2.224586e-16,2.224586e-16,-46.747944,2.966114e-16,2.56873e-16,0,0,0,0,0,0
2.53893,-1.777375,-10.954234,1.891618e-12,0,0,1.891618e-12,-2.220446e-16,0,-3.004759e-17,0,0,0,0,3.99426e-18,-2.260389e-16,1.150166e-16,-37.428001,1.533554e-16,1.520415e-16,0,0,0,0,0,0
2.58622,-1.777375,-10.954936,1.891618e-12,0,0,1.891618e-12,-1.110223e-16,0,-1.078749e-17,0,0,0,0,1.038454e-18,-1.120608e-16,5.654961e-17,-39.501385,7.539947e-17,7.505572e-17,0,0,0,0,0,0
2.633511,-1.777375,-10.951509,1.891618e-12,0,0,1.891618e-12,2.220446e-16,0,2.189779e-17,0,0,0,0,2.241835e-16,-2.138932e-18,1.131612e-16,50.578838,1.508816e-16,1.501737e-16,0,0,0,0,0,0
2.680801,-1.777375,-10.942905,1.891618e-12,0,0,1.891618e-12,2.220446e-16,2.220446e-16,-1.134016e-17,0,0,0,0,2.333848e-16,2.107044e-16,1.134016e-17,0,1.512021e-17,1.486078e-16,0,0,0,0,0,0
2.728091,-1.777375,-10.931094,1.891618e-12,0,0,1.891618e-12,2.220446e-16,0,3.930669e-17,0,0,0,0,2.287974e-16,-6.752769e-18,1.177751e-16,54.748081,1.570334e-16,1.548316e-16,0,0,0,0,0,0
2.775382,-1.777375,-10.918602,1.891618e-12,0,0,1.891618e-12,-1.110223e-16,2.220446e-16,-1.74036e-17,0,0,0,0,2.229515e-16,-1.119292e-16,1.674404e-16,-42.016975,2.232538e-16,1.968534e-16,0,0,0,0,0,0
2.822672,-1.777375,-10.905487,1.891618e-12,0,0,1.891618e-12,2.220446e-16,2.220446e-16,-4.978134e-17,0,0,0,0,2.718259e-16,1.722633e-16,4.978134e-17,0,6.637512e-17,1.587988e-16,0,0,0,0,0,0
2.869963,-1.777375,-10.890229,1.891618e-12,0,0,1.891618e-12,-2.220446e-16,0,-2.360195e-17,0,0,0,0,2.481018e-18,-2.245256e-16,1.135033e-16,-38.999153,1.513378e-16,1.505176e-16,0,0,0,0,0,0
2.917253,-1.777375,-10.871481,1.891618e-12,0,0,1.891618e-12,0,2.220446e-16,-1.757119e-17,0,0,0,0,2.234265e-16,-1.381871e-18,1.124042e-16,-40.503277,1.498722e-16,1.494137e-16,0,0,0,0,0,0
2.964544,-1.777375,-10.848993,1.891618e-12,0,0,1.891618e-12,2.220446e-16,2.220446e-16,1.294004e-17,0,0,0,0,2.349846e-16,2.091046e-16,1.294004e-17,90,1.725339e-17,1.487819e-16,0,0,0,0,0,0
3.011834,-1.777375,-10.823381,1.891618e-12,0,0,1.891618e-12,0,-1.110223e-16,-1.233325e-17,0,0,0,0,1.353574e-18,-1.123759e-16,5.686472e-17,38.736855,7.581963e-17,7.537249e-17,0,0,0,0,0,0
3.059125,-1.777375,-10.794789,1.891618e-12,0,0,1.891618e-12,0,0,-3.122321e-17,0,0,0,0,3.122321e-17,-3.122321e-17,3.122321e-17,0,4.163094e-17,3.605345e-17,0,0,0,0,0,0
3.106415,-1.777375,-10.762093,1.891618e-12,0,0,1.891618e-12,-4.440892e-16,0,3.263645e-17,0,0,0,0,2.385661e-18,-4.464749e-16,2.244303e-16,-49.180775,2.992404e-16,2.984483e-16,0,0,0,0,0,0
3.153705,-1.777375,-10.724713,1.891618e-12,0,0,1.891618e-12,0,-1.110223e-16,-9.79951e-18,0,0,0,0,8.583291e-19,-1.118806e-16,5.636948e-17,39.994297,7.51593e-17,7.487484e-17,0,0,0,0,0,0
3.200996,-1.777375,-10.681643,1.891618e-12,0,0,1.891618e-12,-2.220446e-16,-1.110223e-16,-1.032485e-17,0,0,0,0,-1.100703e-16,-2.229966e-16,5.646318e-17,-39.731808,7.528424e-17,1.287507e-16,0,0,0,0,0,0
3.248286,-1.777375,-10.632599,1.891618e-12,0,0,1.891618e-12,0,0,-3.627929e-18,0,0,0,0,3.627929e-18,-3.627929e-18,3.627929e-18,0,4.837238e-18,4.189171e-18,0,0,0,0,0,0
3.295577,-1.777375,-10.578156,1.891618e-12,0,0,1.891618e-12,0,2.220446e-16,1.797375e-17,0,0,0,0,2.234901e-16,-1.445504e-18,1.124678e-16,-49.598003,1.499571e-16,1.494776e-16,0,0,0,0,0,0
3.342867,-1.777375,-10.515579,1.891618e-12,0,0,1.891618e-12,0,2.220446e-16,3.143641e-17,0,0,0,0,2.264095e-16,-4.36487e-18,1.153872e-16,-52.904842,1.538496e-16,1.524154e-16,0,0,0,0,0,0
3.390158,-1.777375,-10.48073,1.891618e-12,0,0,1.891618e-12,2.220446e-16,-1.110223e-16,4.243021e-17,0,0,0,0,2.273649e-16,-1.163426e-16,1.718538e-16,52.146988,2.291383e-16,2.018609e-16,0,0,0,0,0,0
1.49854,-1.824665,-10.287014,1.891618e-12,0,0,1.891618e-12,2.220446e-16,2.220446e-16,1.703741e-17,0,0,0,0,2.39082e-16,2.050072e-16,1.703741e-17,90,2.271655e-17,1.493313e-16,0,0,0,0,0,0
1.54583,-1.824665,-10.387757,1.891618e-12,0,0,1.891618e-12,2.220446e-16,-2.220446e-16,-1.040455e-17,0,0,0,0,2.222882e-16,-2.222882e-16,2.222882e-16,43.6586,2.963843e-16,2.566763e-16,0,0,0,0,0,0
1.593121,-1.824665,-10.472392,1.891618e-12,0,0,1.891618e-12,-2.220446e-16,0,-9.653772e-18,0,0,0,0,4.18924e-19,-2.224635e-16,1.114412e-16,-42.515217,1.485883e-16,1.484489e-16,0,0,0,0,0,0
1.640411,-1.824665,-10.541076,1.891618e-12,0,0,1.891618e-12,-1.110223e-16,2.220446e-16,4.190011e-17,0,0,0,0,2.272348e-16,-1.162125e-16,1.717236e-16,-52.061295,2.289649e-16,2.017132e-16,0,0,0,0,0,0
1.687701,-1.824665,-10.598082,1.891618e-12,0,0,1.891618e-12,2.220446e-16,-1.110223e-16,5.326005e-18,0,0,0,0,2.221298e-16,-1.111074e-16,1.666186e-16,45.915894,2.221581e-16,1.959215e-16,0,0,0,0,0,0
1.734992,-1.824665,-10.647234,1.891618e-12,0,0,1.891618e-12,0,0,5.059143e-17,0,0,0,0,5.059143e-17,-5.059143e-17,5.059143e-17,90,6.745525e-17,5.841796e-17,0,0,0,0,0,0
1.782282,-1.824665,-10.690892,1.891618e-12,0,0,1.891618e-12,-2.220446e-16,-1.110223e-16,9.307586e-18,0,0,0,0,-1.102474e-16,-2.228195e-16,5.628605e-17,-49.75914,7.504807e-17,1.286472e-16,0,0,0,0,0,0
1.829573,-1.824665,-10.730162,1.891618e-12,0,0,1.891618e-12,0,-2.220446e-16,-4.658078e-17,0,0,0,0,9.375872e-18,-2.314205e-16,1.203982e-16,33.619457,1.605309e-16,1.574987e-16,0,0,0,0,0,0
1.876863,-1.824665,-10.765556,1.891618e-12,0,0,1.891618e-12,-2.220446e-16,2.220446e-16,2.353571e-17,0,0,0,0,2.232884e-16,-2.232884e-16,2.232884e-16,-48.025249,2.977179e-16,2.578313e-16,0,0,0,0,0,0
1.924154,-1.824665,-10.796675,1.891618e-12,0,0,1.891618e-12,0,2.220446e-16,-3.599989e-17,0,0,0,0,2.277354e-16,-5.690781e-18,1.167131e-16,-36.017143,1.556174e-16,1.537556e-16,0,0,0,0,0,0
1.971444,-1.824665,-10.824475,1.891618e-12,0,0,1.891618e-12,-2.220446e-16,0,-1.447125e-17,0,0,0,0,9.391588e-19,-2.229838e-16,1.119615e-16,-41.286812,1.492819e-16,1.489699e-16,0,0,0,0,0,0
2.018735,-1.824665,-10.849474,1.891618e-12,0,0,1.891618e-12,4.440892e-16,2.220446e-16,-2.799412e-17,0,0,0,0,4.475642e-16,2.185697e-16,1.144973e-16,37.923973,1.52663e-16,2.584247e-16,0,0,0,0,0,0
2.066025,-1.824665,-10.871686,1.891618e-12,0,0,1.891618e-12,2.220446e-16,2.220446e-16,1.222156e-17,0,0,0,0,2.342662e-16,2.09823e-16,1.222156e-17,90,1.629542e-17,1.487009e-16,0,0,0,0,0,0
2.113316,-1.824665,-10.891479,1.891618e-12,0,0,1.891618e-12,-1.110223e-16,2.220446e-16,-2.776508e-17,0,0,0,0,2.243433e-16,-1.13321e-16,1.688321e-16,-40.267246,2.251095e-16,1.98432e-16,0,0,0,0,0,0
2.160606,-1.824665,-10.910004,1.891618e-12,0,0,1.891618e-12,-1.110223e-16,-1.110223e-16,-5.731382e-18,0,0,0,0,-1.052909e-16,-1.167537e-16,5.731382e-18,0,7.641844e-18,7.431015e-17,0,0,0,0,0,0
2.207896,-1.824665,-10.927251,1.891618e-12,0,0,1.891618e-12,0,-1.110223e-16,2.860115e-17,0,0,0,0,6.934933e-18,-1.179572e-16,6.244608e-17,58.629498,8.326145e-17,8.104876e-17,0,0,0,0,0,0
2.255187,-1.824665,-10.943127,1.891618e-12,0,0,1.891618e-12,2.220446e-16,-2.220446e-16,1.387833e-17,0,0,0,0,2.224779e-16,-2.224779e-16,2.224779e-16,46.788235,2.966372e-16,2.568954e-16,0,0,0,0,0,0
2.302477,-1.824665,-10.954787,1.891618e-12,0,0,1.891618e-12,-2.220446e-16,-1.110223e-16,-1.843566e-17,0,0,0,0,-1.080411e-16,-2.250259e-16,5.84924e-17,-35.814148,7.798988e-17,1.299529e-16,0,0,0,0,0,0
2.349768,-1.824665,-10.959533,1.891618e-12,0,0,1.891618e-12,2.220446e-16,2.220446e-16,2.11516e-17,0,0,0,0,2.431962e-16,2.00893e-16,2.11516e-17,90,2.820214e-17,1.500311e-16,0,0,0,0,0,0
2.397058,-1.824665,-10.958709,1.891618e-12,0,0,1.891618e-12,0,0,1.873716e-18,0,0,0,0,1.873716e-18,-1.873716e-18,1.873716e-18,90,2.498288e-18,2.163581e-18,0,0,0,0,0,0
2.444349,-1.824665,-10.95626,1.891618e-12,0,0,1.891618e-12,0,2.220446e-16,-4.005288e-17,0,0,0,0,2.290485e-16,-7.003901e-18,1.180262e-16,-35.081184,1.573683e-16,1.550864e-16,0,0,0,0,0,0
2.491639,-1.824665,-10.955503,1.891618e-12,0,0,1.891618e-12,2.220446e-16,-2.220446e-16,-7.511453e-18,0,0,0,0,2.221716e-16,-2.221716e-16,2.221716e-16,44.031254,2.962288e-16,2.565417e-16,0,0,0,0,0,0
2.53893,-1.824665,-10.957073,1.891618e-12,0,0,1.891618e-12,4.440892e-16,-4.440892e-16,4.685196e-17,0,0,0,0,4.465539e-16,-4.465539e-16,4.465539e-16,48.01125,5.954051e-16,5.15636e-16,0,0,0,0,0,0
2.58622,-1.824665,-10.957925,1.891618e-12,0,0,1.891618e-12,-1.110223e-16,-1.110223e-16,-1.605277e-17,0,0,0,0,-9.496953e-17,-1.270751e-16,1.605277e-17,0,2.140369e-17,7.630065e-17,0,0,0,0,0,0
2.633511,-1.824665,-10.954036,1.891618e-12,0,0,1.891618e-12,0,2.220446e-16,-3.734023e-17,0,0,0,0,2.281558e-16,-6.111145e-18,1.171334e-16,-35.705311,1.561779e-16,1.541813e-16,0,0,0,0,0,0
2.680801,-1.824665,-10.944414,1.891618e-12,0,0,1.891618e-12,2.220446e-16,0,-3.340659e-17,0,0,0,0,2.269617e-16,-4.91713e-18,1.159394e-16,36.626736,1.545859e-16,1.529732e-16,0,0,0,0,0,0
2.728091,-1.824665,-10.931471,1.891618e-12,0,0,1.891618e-12,-2.220446e-16,-1.110223e-16,-1.751006e-17,0,0,0,0,-1.083262e-16,-2.247408e-16,5.82073e-17,-36.246498,7.760974e-17,1.297821e-16,0,0,0,0,0,0
2.775382,-1.824665,-10.918298,1.891618e-12,0,0,1.891618e-12,0,-1.110223e-16,-3.098013e-18,0,0,0,0,8.638104e-20,-1.111087e-16,5.559754e-17,43.402851,7.413004e-17,7.410127e-17,0,0,0,0,0,0
2.822672,-1.824665,-10.905329,1.891618e-12,0,0,1.891618e-12,2.220446e-16,2.220446e-16,9.907284e-18,0,0,0,0,2.319519e-16,2.121373e-16,9.907284e-18,90,1.320971e-17,1.484711e-16,0,0,0,0,0,0
2.869963,-1.824665,-10.890963,1.891618e-12,0,0,1.891618e-12,-1.110223e-16,-1.110223e-16,1.319251e-17,0,0,0,0,-9.782979e-17,-1.242148e-16,1.319251e-17,90,1.759002e-17,7.556624e-17,0,0,0,0,0,0
2.917253,-1.824665,-10.873199,1.891618e-12,0,0,1.891618e-12,2.220446e-16,0,2.063811e-18,0,0,0,0,2.220638e-16,-1.91806e-20,1.110415e-16,45.532478,1.480553e-16,1.480489e-16,0,0,0,0,0,0
2.964544,-1.824665,-10.851204,1.891618e-12,0,0,1.891618e-12,2.220446e-16,-1.110223e-16,-5.362533e-18,0,0,0,0,2.221309e-16,-1.111086e-16,1.666198e-16,44.077831,2.221597e-16,1.959228e-16,0,0,0,0,0,0
3.011834,-1.824665,-10.825285,1.891618e-12,0,0,1.891618e-12,0,-1.110223e-16,2.13171e-17,0,0,0,0,3.952341e-18,-1.149746e-16,5.946349e-17,55.503765,7.928465e-17,7.800059e-17,0,0,0,0,0,0
3.059125,-1.824665,-10.795776,1.891618e-12,0,0,1.891618e-12,-2.220446e-16,-1.110223e-16,3.634319e-17,0,0,0,0,-1.001835e-16,-2.328834e-16,6.634994e-17,-61.6064,8.84666e-17,1.348915e-16,0,0,0,0,0,0
3.106415,-1.824665,-10.762001,1.891618e-12,0,0,1.891618e-12,2.220446e-16,2.220446e-16,1.584366e-17,0,0,0,0,2.378883e-16,2.062009e-16,1.584366e-17,90,2.112488e-17,1.49156e-16,0,0,0,0,0,0
3.153705,-1.824665,-10.72425,1.891618e-12,0,0,1.891618e-12,-2.220446e-16,0,2.268337e-17,0,0,0,0,2.293569e-18,-2.243382e-16,1.133159e-16,-50.773689,1.510878e-16,1.503291e-16,0,0,0,0,0,0
3.200996,-1.824665,-10.682009,1.891618e-12,0,0,1.891618e-12,-2.220446e-16,-1.110223e-16,2.240487e-17,0,0,0,0,-1.066714e-16,-2.263955e-16,5.986206e-17,-55.989754,7.981608e-17,1.307819e-16,0,0,0,0,0,0
3.248286,-1.824665,-10.634449,1.891618e-12,0,0,1.891618e-12,0,-2.220446e-16,2.86908e-17,0,0,0,0,3.647283e-18,-2.256919e-16,1.146696e-16,52.244797,1.528928e-16,1.516916e-16,0,0,0,0,0,0
3.295577,-1.824665,-10.582071,1.891618e-12,0,0,1.891618e-12,0,0,-1.160553e-17,0,0,0,0,1.160553e-17,-1.160553e-17,1.160553e-17,0,1.547403e-17,1.340091e-17,0,0,0,0,0,0
3.342867,-1.824665,-10.522061,1.891618e-12,0,0,1.891618e-12,-3.330669e-16,0,-5.681622e-17,0,0,0,0,9.425276e-18,-3.424922e-16,1.759587e-16,-35.580948,2.346116e-16,2.315338e-16,0,0,0,0,0,0
3.390158,-1.824665,-10.488663,1.891618e-12,0,0,1.891618e-12,-4.440892e-16,-1.110223e-16,-2.237792e-18,0,0,0,0,-1.110073e-16,-4.441042e-16,1.665485e-16,-44.615067,2.220646e-16,2.668769e-16,0,0,0,0,0,0
1.451249,-1.871956,-10.207775,1.891618e-12,0,0,1.891618e-12,0,-2.220446e-16,2.066066e-16,0,0,0,0,1.235245e-16,-3.455692e-16,2.345469e-16,75.874077,3.127291e-16,2.807629e-16,0,0,0,0,0,0
1.49854,-1.871956,-10.29067,1.891618e-12,0,0,1.891618e-12,0,2.220446e-16,1.584454e-17,0,0,0,0,2.231695e-16,-1.124927e-18,1.121472e-16,-49.061058,1.495296e-16,1.491561e-16,0,0,0,0,0,0
1.54583,-1.871956,-10.390518,1.891618e-12,0,0,1.891618e-12,2.220446e-16,2.220446e-16,2.441916e-18,0,0,0,0,2.244865e-16,2.196027e-16,2.441916e-18,90,3.255889e-18,1.480566e-16,0,0,0,0,0,0
1.593121,-1.871956,-10.473851,1.891618e-12,0,0,1.891618e-12,0,2.220446e-16,-3.152973e-17,0,0,0,0,2.264349e-16,-4.39033e-18,1.154126e-16,-37.072868,1.538835e-16,1.524411e-16,0,0,0,0,0,0
1.640411,-1.871956,-10.541539,1.891618e-12,0,0,1.891618e-12,-1.110223e-16,-1.110223e-16,-1.619376e-17,0,0,0,0,-9.482854e-17,-1.272161e-16,1.619376e-17,0,2.159168e-17,7.634037e-17,0,0,0,0,0,0
1.687701,-1.871956,-10.598218,1.891618e-12,0,0,1.891618e-12,-2.220446e-16,0,-6.54127e-18,0,0,0,0,1.925341e-19,-2.222371e-16,1.112148e-16,-43.314056,1.482864e-16,1.482223e-16,0,0,0,0,0,0
1.734992,-1.871956,-10.647467,1.891618e-12,0,0,1.891618e-12,-2.220446e-16,2.220446e-16,6.052675e-18,0,0,0,0,2.221271e-16,-2.221271e-16,2.221271e-16,-45.780716,2.961694e-16,2.564903e-16,0,0,0,0,0,0
1.782282,-1.871956,-10.691629,1.891618e-12,0,0,1.891618e-12,-2.220446e-16,-1.110223e-16,-2.852482e-18,0,0,0,0,-1.109491e-16,-2.221178e-16,5.558439e-17,-43.529202,7.411252e-17,1.282398e-16,0,0,0,0,0,0
1.829573,-1.871956,-10.731178,1.891618e-12,0,0,1.891618e-12,-2.220446e-16,0,-9.097349e-18,0,0,0,0,3.721023e-19,-2.224167e-16,1.113944e-16,-42.65778,1.485259e-16,1.48402e-16,0,0,0,0,0,0
1.876863,-1.871956,-10.766968,1.891618e-12,0,0,1.891618e-12,-2.220446e-16,0,1.388131e-17,0,0,0,0,8.644373e-19,-2.229091e-16,1.118867e-16,-48.563404,1.491823e-16,1.48895e-16,0,0,0,0,0,0
1.924154,-1.871956,-10.798788,1.891618e-12,0,0,1.891618e-12,-1.110223e-16,-2.220446e-16,2.245198e-17,0,0,0,0,-1.066537e-16,-2.264132e-16,5.987971e-17,56.010654,7.983961e-17,1.307927e-16,0,0,0,0,0,0
1.971444,-1.871956,-10.82743,1.891618e-12,0,0,1.891618e-12,-1.110223e-16,-1.110223e-16,-2.061261e-17,0,0,0,0,-9.04097e-17,-1.316349e-16,2.061261e-17,0,2.748348e-17,7.774771e-17,0,0,0,0,0,0
2.018735,-1.871956,-10.853439,1.891618e-12,0,0,1.891618e-12,-1.110223e-16,0,-5.068813e-19,0,0,0,0,2.31416e-21,-1.110246e-16,5.551347e-17,-44.738419,7.401795e-17,7.401718e-17,0,0,0,0,0,0
2.066025,-1.871956,-10.876359,1.891618e-12,0,0,1.891618e-12,2.220446e-16,-2.220446e-16,-2.950158e-18,0,0,0,0,2.220642e-16,-2.220642e-16,2.220642e-16,44.619396,2.960856e-16,2.564177e-16,0,0,0,0,0,0
2.113316,-1.871956,-10.895947,1.891618e-12,0,0,1.891618e-12,0,-4.440892e-16,-1.950459e-17,0,0,0,0,8.550037e-19,-4.449442e-16,2.228996e-16,42.489986,2.971995e-16,2.969149e-16,0,0,0,0,0,0
2.160606,-1.871956,-10.91323,1.891618e-12,0,0,1.891618e-12,0,0,-3.876843e-17,0,0,0,0,3.876843e-17,-3.876843e-17,3.876843e-17,0,5.169124e-17,4.476593e-17,0,0,0,0,0,0
2.207896,-1.871956,-10.928464,1.891618e-12,0,0,1.891618e-12,4.440892e-16,-1.110223e-16,-8.374669e-18,0,0,0,0,4.442155e-16,-1.111486e-16,2.776821e-16,44.135872,3.702428e-16,3.393166e-16,0,0,0,0,0,0
2.255187,-1.871956,-10.942518,1.891618e-12,0,0,1.891618e-12,-1.110223e-16,-2.220446e-16,3.652064e-18,0,0,0,0,-1.109023e-16,-2.221646e-16,5.563116e-17,46.882023,7.417487e-17,1.282668e-16,0,0,0,0,0,0
2.302477,-1.871956,-10.953435,1.891618e-12,0,0,1.891618e-12,0,-2.220446e-16,4.757279e-19,0,0,0,0,1.019237e-21,-2.220456e-16,1.110233e-16,45.122753,1.480311e-16,1.480308e-16,0,0,0,0,0,0
2.349768,-1.871956,-10.958736,1.891618e-12,0,0,1.891618e-12,2.220446e-16,2.220446e-16,-2.77222e-17,0,0,0,0,2.497668e-16,1.943224e-16,2.77222e-17,0,3.696294e-17,1.514513e-16,0,0,0,0,0,0
2.397058,-1.871956,-10.959204,1.891618e-12,0,0,1.891618e-12,0,0,5.557636e-18,0,0,0,0,5.557636e-18,-5.557636e-18,5.557636e-18,90,7.410182e-18,6.417406e-18,0,0,0,0,0,0
2.444349,-1.871956,-10.958297,1.891618e-12,0,0,1.891618e-12,2.220446e-16,-1.110223e-16,7.184505e-18,0,0,0,0,2.221995e-16,-1.111772e-16,1.666884e-16,46.235149,2.222511e-16,1.960006e-16,0,0,0,0,0,0
2.491639,-1.871956,-10.958873,1.891618e-12,0,0,1.891618e-12,-2.220446e-16,-1.110223e-16,-3.71463e-17,0,0,0,0,-9.974022e-17,-2.333267e-16,6.679323e-17,-28.105408,8.905764e-17,1.351828e-16,0,0,0,0,0,0
2.53893,-1.871956,-10.961451,1.891618e-12,0,0,1.891618e-12,0,0,-1.294835e-17,0,0,0,0,1.294835e-17,-1.294835e-17,1.294835e-17,0,1.726446e-17,1.495146e-17,0,0,0,0,0,0
2.58622,-1.871956,-10.96269,1.891618e-12,0,0,1.891618e-12,2.220446e-16,-4.440892e-16,1.635274e-18,0,0,0,0,2.220486e-16,-4.440932e-16,3.330709e-16,45.140652,4.440946e-16,3.916544e-16,0,0,0,0,0,0
2.633511,-1.871956,-10.958396,1.891618e-12,0,0,1.891618e-12,2.220446e-16,-1.110223e-16,-4.323925e-17,0,0,0,0,2.275664e-16,-1.165441e-16,1.720553e-16,37.722473,2.294071e-16,2.020897e-16,0,0,0,0,0,0
2.680801,-1.871956,-10.947734,1.891618e-12,0,0,1.891618e-12,0,2.220446e-16,-1.606189e-17,0,0,0,0,2.232004e-16,-1.155841e-18,1.121781e-16,-40.883991,1.495709e-16,1.491871e-16,0,0,0,0,0,0
2.728091,-1.871956,-10.933592,1.891618e-12,0,0,1.891618e-12,2.220446e-16,0,-2.663307e-17,0,0,0,0,2.251944e-16,-3.149813e-18,1.141721e-16,38.255131,1.522295e-16,1.511905e-16,0,0,0,0,0,0
2.775382,-1.871956,-10.919586,1.891618e-12,0,0,1.891618e-12,-2.220446e-16,2.220446e-16,-1.576513e-17,0,0,0,0,2.226036e-16,-2.226036e-16,2.226036e-16,-42.969414,2.968047e-16,2.570405e-16,0,0,0,0,0,0
2.822672,-1.871956,-10.906521,1.891618e-12,0,0,1.891618e-12,2.220446e-16,0,-6.58312e-18,0,0,0,0,2.222396e-16,-1.950033e-19,1.112173e-16,43.303295,1.482897e-16,1.482248e-16,0,0,0,0,0,0
2.869963,-1.871956,-10.89261,1.891618e-12,0,0,1.891618e-12,-1.110223e-16,0,-2.46084e-17,0,0,0,0,5.210025e-18,-1.162323e-16,6.072118e-17,-33.046013,8.096157e-17,7.928198e-17,0,0,0,0,0,0
2.917253,-1.871956,-10.875451,1.891618e-12,0,0,1.891618e-12,0,0,-3.29623e-17,0,0,0,0,3.29623e-17,-3.29623e-17,3.29623e-17,0,4.394974e-17,3.806159e-17,0,0,0,0,0,0
2.964544,-1.871956,-10.853832,1.891618e-12,0,0,1.891618e-12,0,0,-1.730688e-17,0,0,0,0,1.730688e-17,-1.730688e-17,1.730688e-17,0,2.307584e-17,1.998426e-17,0,0,0,0,0,0
3.011834,-1.871956,-10.827881,1.891618e-12,0,0,1.891618e-12,4.440892e-16,-1.110223e-16,3.870392e-17,0,0,0,0,4.467748e-16,-1.137079e-16,2.802413e-16,48.969227,3.736551e-16,3.421104e-16,0,0,0,0,0,0
3.059125,-1.871956,-10.797995,1.891618e-12,0,0,1.891618e-12,0,0,2.541054e-17,0,0,0,0,2.541054e-17,-2.541054e-17,2.541054e-17,90,3.388072e-17,2.934157e-17,0,0,0,0,0,0
3.106415,-1.871956,-10.763912,1.891618e-12,0,0,1.891618e-12,-2.220446e-16,-1.110223e-16,1.894002e-17,0,0,0,0,-1.078801e-16,-2.251868e-16,5.865332e-17,-54.41964,7.820443e-17,1.300496e-16,0,0,0,0,0,0
3.153705,-1.871956,-10.726249,1.891618e-12,0,0,1.891618e-12,-2.220446e-16,2.220446e-16,-1.69502e-18,0,0,0,0,2.220511e-16,-2.220511e-16,2.220511e-16,-44.781315,2.960681e-16,2.564025e-16,0,0,0,0,0,0
3.200996,-1.871956,-10.684384,1.891618e-12,0,0,1.891618e-12,-2.220446e-16,0,9.52441e-18,0,0,0,0,4.077923e-19,-2.224524e-16,1.114301e-16,-47.451649,1.485735e-16,1.484377e-16,0,0,0,0,0,0
3.248286,-1.871956,-10.637801,1.891618e-12,0,0,1.891618e-12,0,-1.110223e-16,-5.731411e-17,0,0,0,0,2.427854e-17,-1.353008e-16,7.978969e-17,22.042244,1.063863e-16,9.928785e-17,0,0,0,0,0,0
3.295577,-1.871956,-10.58757,1.891618e-12,0,0,1.891618e-12,0,0,-8.285531e-17,0,0,0,0,8.285531e-17,-8.285531e-17,8.285531e-17,0,1.104737e-16,9.567307e-17,0,0,0,0,0,0
3.342867,-1.871956,-10.528444,1.891618e-12,0,0,1.891618e-12,-2.220446e-16,2.220446e-16,2.534038e-17,0,0,0,0,2.234859e-16,-2.234859e-16,2.234859e-16,-48.255299,2.979812e-16,2.580593e-16,0,0,0,0,0,0
3.390158,-1.871956,-10.494872,1.891618e-12,0,0,1.891618e-12,2.220446e-16,0,7.396742e-17,0,0,0,0,2.444282e-16,-2.238358e-17,1.334059e-16,61.836555,1.778745e-16,1.709026e-16,0,0,0,0,0,0
1.451249,-1.919246,-10.175606,1.891618e-12,0,0,1.891618e-12,0,2.220446e-16,4.991811e-17,0,0,0,0,2.327506e-16,-1.070596e-17,1.217283e-16,-57.104874,1.623044e-16,1.58856e-16,0,0,0,0,0,0
1.49854,-1.919246,-10.294619,1.891618e-12,0,0,1.891618e-12,0,-1.110223e-16,-6.256604e-19,0,0,0,0,3.525764e-21,-1.110258e-16,5.551468e-17,44.677128,7.401957e-17,7.401839e-17,0,0,0,0,0,0
1.54583,-1.919246,-10.393658,1.891618e-12,0,0,1.891618e-12,-1.110223e-16,2.220446e-16,7.909895e-18,0,0,0,0,2.222324e-16,-1.112101e-16,1.667212e-16,-46.359676,2.222949e-16,1.960378e-16,0,0,0,0,0,0
1.593121,-1.919246,-10.476018,1.891618e-12,0,0,1.891618e-12,0,2.220446e-16,-4.094967e-17,0,0,0,0,2.293558e-16,-7.311239e-18,1.183335e-16,-34.876957,1.577781e-16,1.553983e-16,0,0,0,0,0,0
1.640411,-1.919246,-10.54269,1.891618e-12,0,0,1.891618e-12,-1.110223e-16,-4.440892e-16,1.413656e-17,0,0,0,0,-1.104234e-16,-4.446881e-16,1.671324e-16,47.426022,2.228432e-16,2.673632e-16,0,0,0,0,0,0
1.687701,-1.919246,-10.59839,1.891618e-12,0,0,1.891618e-12,0,-1.110223e-16,-4.359363e-17,0,0,0,0,1.507137e-17,-1.260937e-16,7.058252e-17,25.928495,9.411003e-17,8.951019e-17,0,0,0,0,0,0
1.734992,-1.919246,-10.647003,1.891618e-12,0,0,1.891618e-12,-2.220446e-16,2.220446e-16,2.883339e-17,0,0,0,0,2.239088e-16,-2.239088e-16,2.239088e-16,-48.699345,2.985451e-16,2.585477e-16,0,0,0,0,0,0
1.782282,-1.919246,-10.691152,1.891618e-12,0,0,1.891618e-12,0,2.220446e-16,6.575648e-18,0,0,0,0,2.222392e-16,-1.945613e-19,1.112169e-16,-46.694782,1.482892e-16,1.482243e-16,0,0,0,0,0,0
1.829573,-1.919246,-10.731671,1.891618e-12,0,0,1.891618e-12,4.440892e-16,0,2.446382e-18,0,0,0,0,4.441027e-16,-1.347613e-20,2.220581e-16,45.315617,2.960774e-16,2.96073e-16,0,0,0,0,0,0
1.876863,-1.919246,-10.768665,1.891618e-12,0,0,1.891618e-12,4.440892e-16,0,1.051064e-17,0,0,0,0,4.443378e-16,-2.48625e-19,2.222932e-16,46.355057,2.96391e-16,2.963081e-16,0,0,0,0,0,0
1.924154,-1.919246,-10.801861,1.891618e-12,0,0,1.891618e-12,0,-4.440892e-16,-3.964165e-17,0,0,0,0,3.510858e-18,-4.476001e-16,2.255555e-16,39.938812,3.007406e-16,2.995772e-16,0,0,0,0,0,0
1.971444,-1.919246,-10.831824,1.891618e-12,0,0,1.891618e-12,-1.110223e-16,-1.110223e-16,-3.837101e-18,0,0,0,0,-1.071852e-16,-1.148594e-16,3.837101e-18,0,5.116135e-18,7.414736e-17,0,0,0,0,0,0
2.018735,-1.919246,-10.859129,1.891618e-12,0,0,1.891618e-12,-1.110223e-16,2.220446e-16,3.044577e-17,0,0,0,0,2.248048e-16,-1.137825e-16,1.692936e-16,-50.180222,2.257249e-16,1.989556e-16,0,0,0,0,0,0
2.066025,-1.919246,-10.882927,1.891618e-12,0,0,1.891618e-12,-2.220446e-16,-2.220446e-16,4.254053e-18,0,0,0,0,-2.177906e-16,-2.262987e-16,4.254053e-18,90,5.672071e-18,1.481112e-16,0,0,0,0,0,0
2.113316,-1.919246,-10.902445,1.891618e-12,0,0,1.891618e-12,-3.330669e-16,0,4.646508e-18,0,0,0,0,6.480929e-20,-3.331317e-16,1.665983e-16,-45.799107,2.22131e-16,2.221094e-16,0,0,0,0,0,0
2.160606,-1.919246,-10.918056,1.891618e-12,0,0,1.891618e-12,2.220446e-16,-1.110223e-16,2.493012e-18,0,0,0,0,2.220633e-16,-1.11041e-16,1.665521e-16,45.428829,2.220695e-16,1.958461e-16,0,0,0,0,0,0
2.207896,-1.919246,-10.930919,1.891618e-12,0,0,1.891618e-12,2.220446e-16,2.220446e-16,1.767744e-17,0,0,0,0,2.397221e-16,2.043672e-16,1.767744e-17,90,2.356992e-17,1.494304e-16,0,0,0,0,0,0
2.255187,-1.919246,-10.942685,1.891618e-12,0,0,1.891618e-12,-1.110223e-16,-1.110223e-16,-1.756382e-17,0,0,0,0,-9.345848e-17,-1.285861e-16,1.756382e-17,0,2.341843e-17,7.67432e-17,0,0,0,0,0,0
2.302477,-1.919246,-10.952201,1.891618e-12,0,0,1.891618e-12,0,-1.110223e-16,5.940788e-17,0,0,0,0,2.579558e-17,-1.368179e-16,8.130673e-17,68.471031,1.08409e-16,1.009155e-16,0,0,0,0,0,0
2.349768,-1.919246,-10.957635,1.891618e-12,0,0,1.891618e-12,-4.440892e-16,0,-4.226658e-17,0,0,0,0,3.986965e-18,-4.480762e-16,2.260316e-16,-39.61129,3.013754e-16,3.000553e-16,0,0,0,0,0,0
2.397058,-1.919246,-10.959574,1.891618e-12,0,0,1.891618e-12,0,0,8.430402e-18,0,0,0,0,8.430402e-18,-8.430402e-18,8.430402e-18,90,1.124054e-17,9.73459e-18,0,0,0,0,0,0
2.444349,-1.919246,-10.960571,1.891618e-12,0,0,1.891618e-12,-1.110223e-16,2.220446e-16,-4.313934e-17,0,0,0,0,2.275414e-16,-1.165191e-16,1.720302e-16,-37.738575,2.293736e-16,2.020612e-16,0,0,0,0,0,0
2.491639,-1.919246,-10.962652,1.891618e-12,0,0,1.891618e-12,0,2.220446e-16,4.674664e-17,0,0,0,0,2.314847e-16,-9.44014e-18,1.204624e-16,-56.416916,1.606166e-16,1.575642e-16,0,0,0,0,0,0
2.53893,-1.919246,-10.965996,1.891618e-12,0,0,1.891618e-12,-1.110223e-16,0,-1.453391e-17,0,0,0,0,1.871096e-18,-1.128934e-16,5.738225e-17,-37.664085,7.650966e-17,7.589366e-17,0,0,0,0,0,0
2.58622,-1.919246,-10.967209,1.891618e-12,0,0,1.891618e-12,0,-1.110223e-16,-4.896388e-19,0,0,0,0,2.159399e-21,-1.110245e-16,5.551331e-17,44.747318,7.401775e-17,7.401703e-17,0,0,0,0,0,0
2.633511,-1.919246,-10.962672,1.891618e-12,0,0,1.891618e-12,4.440892e-16,4.440892e-16,1.665064e-17,0,0,0,0,4.607399e-16,4.274386e-16,1.665064e-17,90,2.220086e-17,2.966831e-16,0,0,0,0,0,0
2.680801,-1.919246,-10.951833,1.891618e-12,0,0,1.891618e-12,-3.330669e-16,2.220446e-16,1.091494e-17,0,0,0,0,2.222591e-16,-3.332814e-16,2.777703e-16,-46.126003,3.703604e-16,3.228694e-16,0,0,0,0,0,0
2.728091,-1.919246,-10.937292,1.891618e-12,0,0,1.891618e-12,-2.220446e-16,2.220446e-16,-1.874032e-17,0,0,0,0,2.22834e-16,-2.22834e-16,2.22834e-16,-42.587868,2.971121e-16,2.573066e-16,0,0,0,0,0,0
2.775382,-1.919246,-10.92284,1.891618e-12,0,0,1.891618e-12,2.220446e-16,0,1.077573e-17,0,0,0,0,2.225663e-16,-5.217156e-19,1.11544e-16,47.771858,1.487254e-16,1.485518e-16,0,0,0,0,0,0
2.822672,-1.919246,-10.90958,1.891618e-12,0,0,1.891618e-12,2.220446e-16,0,6.631109e-18,0,0,0,0,2.222425e-16,-1.978542e-19,1.112202e-16,46.709042,1.482935e-16,1.482276e-16,0,0,0,0,0,0
2.869963,-1.919246,-10.895658,1.891618e-12,0,0,1.891618e-12,0,-2.220446e-16,1.584564e-17,0,0,0,0,1.125082e-18,-2.231697e-16,1.121474e-16,49.061337,1.495298e-16,1.491562e-16,0,0,0,0,0,0
2.917253,-1.919246,-10.878716,1.891618e-12,0,0,1.891618e-12,0,2.220446e-16,-1.115814e-17,0,0,0,0,2.226039e-16,-5.593074e-19,1.115816e-16,-42.130421,1.487755e-16,1.485894e-16,0,0,0,0,0,0
2.964544,-1.919246,-10.857303,1.891618e-12,0,0,1.891618e-12,0,-1.110223e-16,1.649683e-17,0,0,0,0,2.399411e-18,-1.134217e-16,5.791056e-17,53.275459,7.721408e-17,7.642684e-17,0,0,0,0,0,0
3.011834,-1.919246,-10.831522,1.891618e-12,0,0,1.891618e-12,-1.110223e-16,-2.220446e-16,7.172951e-17,0,0,0,0,-7.583279e-17,-2.572341e-16,9.070067e-17,71.131935,1.209342e-16,1.526262e-16,0,0,0,0,0,0
3.059125,-1.919246,-10.802023,1.891618e-12,0,0,1.891618e-12,-2.220446e-16,-1.110223e-16,1.171502e-17,0,0,0,0,-1.097996e-16,-2.232673e-16,5.673385e-17,-50.958393,7.564513e-17,1.289092e-16,0,0,0,0,0,0
3.106415,-1.919246,-10.768478,1.891618e-12,0,0,1.891618e-12,0,0,-6.934595e-18,0,0,0,0,6.934595e-18,-6.934595e-18,6.934595e-18,0,9.246126e-18,8.00738e-18,0,0,0,0,0,0
3.153705,-1.919246,-10.731315,1.891618e-12,0,0,1.891618e-12,0,0,-2.913495e-19,0,0,0,0,2.913495e-19,-2.913495e-19,2.913495e-19,0,3.88466e-19,3.364214e-19,0,0,0,0,0,0
3.200996,-1.919246,-10.69042,1.891618e-12,0,0,1.891618e-12,-2.220446e-16,0,2.066462e-17,0,0,0,0,1.906782e-18,-2.239514e-16,1.129291e-16,-50.271912,1.505721e-16,1.499406e-16,0,0,0,0,0,0
3.248286,-1.919246,-10.644778,1.891618e-12,0,0,1.891618e-12,-3.330669e-16,2.220446e-16,1.091932e-17,0,0,0,0,2.222593e-16,-3.332816e-16,2.777705e-16,-46.126457,3.703606e-16,3.228696e-16,0,0,0,0,0,0
3.295577,-1.919246,-10.592978,1.891618e-12,0,0,1.891618e-12,0,0,2.848406e-17,0,0,0,0,2.848406e-17,-2.848406e-17,2.848406e-17,90,3.797875e-17,3.289056e-17,0,0,0,0,0,0
3.342867,-1.919246,-10.549142,1.891618e-12,0,0,1.891618e-12,2.220446e-16,-3.330669e-16,1.09761e-16,0,0,0,0,2.429594e-16,-3.539817e-16,2.984706e-16,55.7883,3.979607e-16,3.466253e-16,0,0,0,0,0,0
1.451249,-1.966537,-10.186196,1.891618e-12,0,0,1.891618e-12,-1.110223e-16,0,-9.877184e-19,0,0,0,0,8.786616e-21,-1.110311e-16,5.551994e-17,-44.490318,7.402658e-17,7.402365e-17,0,0,0,0,0,0
1.49854,-1.966537,-10.299618,1.891618e-12,0,0,1.891618e-12,-4.440892e-16,2.220446e-16,-4.378424e-18,0,0,0,0,2.220734e-16,-4.44118e-16,3.330957e-16,-44.623425,4.441276e-16,3.916825e-16,0,0,0,0,0,0
1.54583,-1.966537,-10.397613,1.891618e-12,0,0,1.891618e-12,2.220446e-16,2.220446e-16,4.431921e-17,0,0,0,0,2.663638e-16,1.777254e-16,4.431921e-17,90,5.909228e-17,1.566261e-16,0,0,0,0,0,0
1.593121,-1.966537,-10.479273,1.891618e-12,0,0,1.891618e-12,0,-1.110223e-16,4.16072e-17,0,0,0,0,1.38621e-17,-1.248844e-16,6.937325e-17,63.426308,9.249766e-17,8.824066e-17,0,0,0,0,0,0
1.640411,-1.966537,-10.545543,1.891618e-12,0,0,1.891618e-12,2.220446e-16,-2.220446e-16,-6.547984e-18,0,0,0,0,2.221411e-16,-2.221411e-16,2.221411e-16,44.155434,2.961882e-16,2.565065e-16,0,0,0,0,0,0
1.687701,-1.966537,-10.599836,1.891618e-12,0,0,1.891618e-12,-2.220446e-16,-1.110223e-16,4.057874e-18,0,0,0,0,-1.108742e-16,-2.221927e-16,5.565927e-17,-47.090446,7.421236e-17,1.282831e-16,0,0,0,0,0,0
1.734992,-1.966537,-10.647181,1.891618e-12,0,0,1.891618e-12,2.220446e-16,-1.110223e-16,5.384171e-18,0,0,0,0,2.221316e-16,-1.111093e-16,1.666205e-16,45.925888,2.221606e-16,1.959236e-16,0,0,0,0,0,0
1.782282,-1.966537,-10.690894,1.891618e-12,0,0,1.891618e-12,2.220446e-16,2.220446e-16,4.105632e-18,0,0,0,0,2.261502e-16,2.17939e-16,4.105632e-18,90,5.474177e-18,1.481056e-16,0,0,0,0,0,0
1.829573,-1.966537,-10.732213,1.891618e-12,0,0,1.891618e-12,-5.551115e-16,2.220446e-16,6.790422e-18,0,0,0,0,2.221039e-16,-5.551709e-16,3.886374e-16,-45.500572,5.181832e-16,4.622892e-16,0,0,0,0,0,0
1.876863,-1.966537,-10.770581,1.891618e-12,0,0,1.891618e-12,0,2.220446e-16,-9.287264e-18,0,0,0,0,2.224324e-16,-3.87773e-19,1.114101e-16,-42.609108,1.485468e-16,1.484177e-16,0,0,0,0,0,0
1.924154,-1.966537,-10.805392,1.891618e-12,0,0,1.891618e-12,2.220446e-16,2.220446e-16,3.307977e-17,0,0,0,0,2.551244e-16,1.889648e-16,3.307977e-17,90,4.410636e-17,1.528785e-16,0,0,0,0,0,0
1.971444,-1.966537,-10.836972,1.891618e-12,0,0,1.891618e-12,0,-1.110223e-16,1.958508e-17,0,0,0,0,3.353636e-18,-1.143759e-16,5.886479e-17,54.716763,7.848638e-17,7.739273e-17,0,0,0,0,0,0
2.018735,-1.966537,-10.865569,1.891618e-12,0,0,1.891618e-12,-1.110223e-16,-2.220446e-16,8.898551e-18,0,0,0,0,-1.103136e-16,-2.227533e-16,5.621985e-17,49.553574,7.495981e-17,1.286086e-16,0,0,0,0,0,0
2.066025,-1.966537,-10.89012,1.891618e-12,0,0,1.891618e-12,-1.110223e-16,-1.110223e-16,5.099958e-18,0,0,0,0,-1.059223e-16,-1.161223e-16,5.099958e-18,90,6.799944e-18,7.424877e-17,0,0,0,0,0,0
2.113316,-1.966537,-10.909732,1.891618e-12,0,0,1.891618e-12,0,-1.110223e-16,-4.521951e-17,0,0,0,0,1.608697e-17,-1.271093e-16,7.159813e-17,25.416832,9.546417e-17,9.057927e-17,0,0,0,0,0,0
2.160606,-1.966537,-10.92405,1.891618e-12,0,0,1.891618e-12,2.220446e-16,-1.110223e-16,-3.769044e-17,0,0,0,0,2.262564e-16,-1.152342e-16,1.707453e-16,38.62373,2.276604e-16,2.006028e-16,0,0,0,0,0,0
2.207896,-1.966537,-10.934823,1.891618e-12,0,0,1.891618e-12,-1.110223e-16,2.220446e-16,-3.722834e-17,0,0,0,0,2.26155e-16,-1.151327e-16,1.706439e-16,-38.699394,2.275252e-16,2.004877e-16,0,0,0,0,0,0
2.255187,-1.966537,-10.944604,1.891618e-12,0,0,1.891618e-12,0,2.220446e-16,2.360578e-17,0,0,0,0,2.245264e-16,-2.481814e-18,1.135041e-16,-51.001793,1.513388e-16,1.505184e-16,0,0,0,0,0,0
2.302477,-1.966537,-10.95306,1.891618e-12,0,0,1.891618e-12,-1.110223e-16,0,1.747522e-17,0,0,0,0,2.685681e-18,-1.13708e-16,5.819683e-17,-53.737148,7.759578e-17,7.671622e-17,0,0,0,0,0,0
2.349768,-1.966537,-10.958726,1.891618e-12,0,0,1.891618e-12,2.220446e-16,0,1.776316e-17,0,0,0,0,2.234566e-16,-1.412041e-18,1.124343e-16,49.545036,1.499125e-16,1.49444e-16,0,0,0,0,0,0
2.397058,-1.966537,-10.961988,1.891618e-12,0,0,1.891618e-12,2.220446e-16,-1.110223e-16,2.787602e-17,0,0,0,0,2.243616e-16,-1.133393e-16,1.688504e-16,49.751316,2.251339e-16,1.984528e-16,0,0,0,0,0,0
2.444349,-1.966537,-10.964114,1.891618e-12,0,0,1.891618e-12,-2.220446e-16,2.220446e-16,-7.976029e-18,0,0,0,0,2.221878e-16,-2.221878e-16,2.221878e-16,-43.971386,2.962504e-16,2.565604e-16,0,0,0,0,0,0
2.491639,-1.966537,-10.966579,1.891618e-12,0,0,1.891618e-12,0,2.220446e-16,6.782496e-18,0,0,0,0,2.222516e-16,-2.069828e-19,1.112293e-16,-46.747963,1.483057e-16,1.482368e-16,0,0,0,0,0,0
2.53893,-1.966537,-10.969609,1.891618e-12,0,0,1.891618e-12,2.220446e-16,0,-3.004531e-18,0,0,0,0,2.220853e-16,-4.064749e-20,1.110629e-16,44.224907,1.480839e-16,1.480704e-16,0,0,0,0,0,0
2.58622,-1.966537,-10.970154,1.891618e-12,0,0,1.891618e-12,-2.220446e-16,2.220446e-16,-1.662508e-17,0,0,0,0,2.226661e-16,-2.226661e-16,2.226661e-16,-42.859051,2.968881e-16,2.571127e-16,0,0,0,0,0,0
2.633511,-1.966537,-10.965231,1.891618e-12,0,0,1.891618e-12,-1.110223e-16,-2.220446e-16,1.435057e-17,0,0,0,0,-1.091974e-16,-2.238695e-16,5.733608e-17,52.247295,7.644811e-17,1.29264e-16,0,0,0,0,0,0
2.680801,-1.966537,-10.954873,1.891618e-12,0,0,1.891618e-12,2.220446e-16,2.220446e-16,1.094756e-17,0,0,0,0,2.329922e-16,2.11097e-16,1.094756e-17,90,1.459674e-17,1.485685e-16,0,0,0,0,0,0
2.728091,-1.966537,-10.94112,1.891618e-12,0,0,1.891618e-12,-1.110223e-16,2.220446e-16,-8.631379e-18,0,0,0,0,2.222681e-16,-1.112458e-16,1.66757e-16,-43.516518,2.223427e-16,1.960784e-16,0,0,0,0,0,0
2.775382,-1.966537,-10.927121,1.891618e-12,0,0,1.891618e-12,2.220446e-16,2.220446e-16,-1.833648e-17,0,0,0,0,2.403811e-16,2.037081e-16,1.833648e-17,0,2.444865e-17,1.495363e-16,0,0,0,0,0,0
2.822672,-1.966537,-10.913822,1.891618e-12,0,0,1.891618e-12,2.220446e-16,2.220446e-16,2.976724e-17,0,0,0,0,2.518119e-16,1.922774e-16,2.976724e-17,90,3.968965e-17,1.519679e-16,0,0,0,0,0,0
2.869963,-1.966537,-10.899537,1.891618e-12,0,0,1.891618e-12,2.220446e-16,2.220446e-16,-8.018862e-18,0,0,0,0,2.300635e-16,2.140257e-16,8.018862e-18,0,1.069182e-17,1.48319e-16,0,0,0,0,0,0
2.917253,-1.966537,-10.882449,1.891618e-12,0,0,1.891618e-12,0,-1.110223e-16,3.951412e-18,0,0,0,0,1.404576e-19,-1.111628e-16,5.565161e-17,47.035789,7.420214e-17,7.415537e-17,0,0,0,0,0,0
2.964544,-1.966537,-10.861245,1.891618e-12,0,0,1.891618e-12,2.220446e-16,0,-3.758822e-17,0,0,0,0,2.28235e-16,-6.190436e-18,1.172127e-16,35.647858,1.562837e-16,1.542616e-16,0,0,0,0,0,0
3.011834,-1.966537,-10.835878,1.891618e-12,0,0,1.891618e-12,2.220446e-16,0,5.086522e-18,0,0,0,0,2.221611e-16,-1.164592e-19,1.111388e-16,46.311596,1.48185e-16,1.481462e-16,0,0,0,0,0,0
3.059125,-1.966537,-10.807066,1.891618e-12,0,0,1.891618e-12,0,2.220446e-16,9.055089e-18,0,0,0,0,2.224133e-16,-3.686589e-19,1.11391e-16,-47.33139,1.485213e-16,1.483985e-16,0,0,0,0,0,0
3.106415,-1.966537,-10.774477,1.891618e-12,0,0,1.891618e-12,0,2.220446e-16,3.992477e-17,0,0,0,0,2.290051e-16,-6.960488e-18,1.179828e-16,-54.889557,1.573104e-16,1.550423e-16,0,0,0,0,0,0
3.153705,-1.966537,-10.738094,1.891618e-12,0,0,1.891618e-12,0,0,-8.99845e-18,0,0,0,0,8.99845e-18,-8.99845e-18,8.99845e-18,0,1.199793e-17,1.039052e-17,0,0,0,0,0,0
3.200996,-1.966537,-10.697705,1.891618e-12,0,0,1.891618e-12,-2.220446e-16,2.220446e-16,5.263958e-18,0,0,0,0,2.22107e-16,-2.22107e-16,2.22107e-16,-45.67902,2.961427e-16,2.564671e-16,0,0,0,0,0,0
3.248286,-1.966537,-10.652553,1.891618e-12,0,0,1.891618e-12,4.440892e-16,0,-5.593579e-18,0,0,0,0,4.441597e-16,-7.044342e-20,2.22115e-16,44.278477,2.961534e-16,2.961299e-16,0,0,0,0,0,0
3.295577,-1.966537,-10.599363,1.891618e-12,0,0,1.891618e-12,4.440892e-16,2.220446e-16,-5.344621e-17,0,0,0,0,4.56284e-16,2.098498e-16,1.232171e-16,32.1469,1.642894e-16,2.637178e-16,0,0,0,0,0,0
3.342867,-1.966537,-10.570192,1.891618e-12,0,0,1.891618e-12,0,2.220446e-16,3.475635e-17,0,0,0,0,2.273578e-16,-5.313227e-18,1.163355e-16,-53.691555,1.55114e-16,1.533736e-16,0,0,0,0,0,0
1.451249,-2.013827,-10.19327,1.891618e-12,0,0,1.891618e-12,-3.330669e-16,-3.330669e-16,6.61274e-18,0,0,0,0,-3.264542e-16,-3.396796e-16,6.61274e-18,90,8.816988e-18,2.221759e-16,0,0,0,0,0,0
1.49854,-2.013827,-10.306594,1.891618e-12,0,0,1.891618e-12,-2.220446e-16,0,-2.010315e-17,0,0,0,0,1.805391e-18,-2.2385e-16,1.128277e-16,-39.86824,1.504369e-16,1.498388e-16,0,0,0,0,0,0
1.54583,-2.013827,-10.40455,1.891618e-12,0,0,1.891618e-12,0,2.220446e-16,2.664364e-17,0,0,0,0,2.251969e-16,-3.15228e-18,1.141746e-16,-51.747448,1.522328e-16,1.51193e-16,0,0,0,0,0,0
1.593121,-2.013827,-10.485759,1.891618e-12,0,0,1.891618e-12,2.220446e-16,2.220446e-16,-3.843959e-17,0,0,0,0,2.604842e-16,1.83605e-16,3.843959e-17,0,5.125279e-17,1.545411e-16,0,0,0,0,0,0
1.640411,-2.013827,-10.550859,1.891618e-12,0,0,1.891618e-12,2.220446e-16,2.220446e-16,-1.097444e-17,0,0,0,0,2.33019e-16,2.110702e-16,1.097444e-17,0,1.463258e-17,1.485712e-16,0,0,0,0,0,0
1.687701,-2.013827,-10.603581,1.891618e-12,0,0,1.891618e-12,0,-4.440892e-16,-7.029794e-17,0,0,0,0,1.086226e-17,-4.549515e-16,2.329069e-16,36.216267,3.105425e-16,3.069858e-16,0,0,0,0,0,0
1.734992,-2.013827,-10.648971,1.891618e-12,0,0,1.891618e-12,0,0,-2.471654e-18,0,0,0,0,2.471654e-18,-2.471654e-18,2.471654e-18,0,3.295539e-18,2.85402e-18,0,0,0,0,0,0
1.782282,-2.013827,-10.691563,1.891618e-12,0,0,1.891618e-12,0,2.220446e-16,-3.453349e-17,0,0,0,0,2.272914e-16,-5.246841e-18,1.162691e-16,-36.360847,1.550255e-16,1.533065e-16,0,0,0,0,0,0
1.829573,-2.013827,-10.732766,1.891618e-12,0,0,1.891618e-12,2.220446e-16,2.220446e-16,4.934369e-17,0,0,0,0,2.713883e-16,1.727009e-16,4.934369e-17,90,6.579158e-17,1.586165e-16,0,0,0,0,0,0
1.876863,-2.013827,-10.771772,1.891618e-12,0,0,1.891618e-12,0,2.220446e-16,2.847069e-17,0,0,0,0,2.25637e-16,-3.592408e-18,1.146147e-16,-52.191528,1.528196e-16,1.516363e-16,0,0,0,0,0,0
1.924154,-2.013827,-10.807943,1.891618e-12,0,0,1.891618e-12,-4.440892e-16,0,-3.276085e-17,0,0,0,0,2.403785e-18,-4.46493e-16,2.244484e-16,-40.803516,2.992645e-16,2.984665e-16,0,0,0,0,0,0
1.971444,-2.013827,-10.840716,1.891618e-12,0,0,1.891618e-12,0,0,9.627006e-18,0,0,0,0,9.627006e-18,-9.627006e-18,9.627006e-18,90,1.283601e-17,1.111631e-17,0,0,0,0,0,0
2.018735,-2.013827,-10.870196,1.891618e-12,0,0,1.891618e-12,0,0,-3.260334e-17,0,0,0,0,3.260334e-17,-3.260334e-17,3.260334e-17,0,4.347111e-17,3.764709e-17,0,0,0,0,0,0
2.066025,-2.013827,-10.895356,1.891618e-12,0,0,1.891618e-12,0,0,1.977734e-17,0,0,0,0,1.977734e-17,-1.977734e-17,1.977734e-17,90,2.636979e-17,2.283691e-17,0,0,0,0,0,0
2.113316,-2.013827,-10.915074,1.891618e-12,0,0,1.891618e-12,-2.220446e-16,0,9.453039e-20,0,0,0,0,4.024413e-23,-2.220447e-16,1.110223e-16,-45.024391,1.480298e-16,1.480298e-16,0,0,0,0,0,0
2.160606,-2.013827,-10.928974,1.891618e-12,0,0,1.891618e-12,-1.110223e-16,0,-1.764822e-17,0,0,0,0,2.737864e-18,-1.137602e-16,5.824901e-17,-36.181694,7.766535e-17,7.6769e-17,0,0,0,0,0,0
2.207896,-2.013827,-10.938796,1.891618e-12,0,0,1.891618e-12,0,2.220446e-16,2.581569e-18,0,0,0,0,2.220746e-16,-3.001017e-20,1.110523e-16,-45.666019,1.480698e-16,1.480597e-16,0,0,0,0,0,0
2.255187,-2.013827,-10.947387,1.891618e-12,0,0,1.891618e-12,-1.110223e-16,2.220446e-16,-4.162338e-17,0,0,0,0,2.271675e-16,-1.161452e-16,1.716563e-16,-37.983494,2.288751e-16,2.016368e-16,0,0,0,0,0,0
2.302477,-2.013827,-10.955576,1.891618e-12,0,0,1.891618e-12,0,2.220446e-16,3.144029e-17,0,0,0,0,2.264105e-16,-4.365928e-18,1.153882e-16,-52.905769,1.53851e-16,1.524165e-16,0,0,0,0,0,0
2.349768,-2.013827,-10.962156,1.891618e-12,0,0,1.891618e-12,-1.110223e-16,2.220446e-16,-1.168043e-18,0,0,0,0,2.220487e-16,-1.110264e-16,1.665376e-16,-44.799072,2.220501e-16,1.958296e-16,0,0,0,0,0,0
2.397058,-2.013827,-10.967017,1.891618e-12,0,0,1.891618e-12,-1.110223e-16,-1.110223e-16,1.544434e-17,0,0,0,0,-9.557796e-17,-1.264666e-16,1.544434e-17,90,2.059245e-17,7.613303e-17,0,0,0,0,0,0
2.444349,-2.013827,-10.969996,1.891618e-12,0,0,1.891618e-12,0,2.220446e-16,1.268451e-17,0,0,0,0,2.227669e-16,-7.222655e-19,1.117446e-16,-48.258945,1.489928e-16,1.487526e-16,0,0,0,0,0,0
2.491639,-2.013827,-10.971808,1.891618e-12,0,0,1.891618e-12,-2.220446e-16,-1.110223e-16,-9.507889e-18,0,0,0,0,-1.102139e-16,-2.22853e-16,5.631952e-17,-40.140377,7.509269e-17,1.286668e-16,0,0,0,0,0,0
2.53893,-2.013827,-10.972951,1.891618e-12,0,0,1.891618e-12,-2.220446e-16,0,2.298923e-17,0,0,0,0,2.355193e-18,-2.243998e-16,1.133775e-16,-50.849411,1.5117e-16,1.503911e-16,0,0,0,0,0,0
2.58622,-2.013827,-10.971904,1.891618e-12,0,0,1.891618e-12,2.220446e-16,-1.110223e-16,3.438317e-17,0,0,0,0,2.25557e-16,-1.145347e-16,1.700459e-16,50.832802,2.267278e-16,1.998091e-16,0,0,0,0,0,0
2.633511,-2.013827,-10.966571,1.891618e-12,0,0,1.891618e-12,-2.220446e-16,0,-2.312163e-17,0,0,0,0,2.382112e-18,-2.244267e-16,1.134044e-16,-39.11784,1.512059e-16,1.504181e-16,0,0,0,0,0,0
2.680801,-2.013827,-10.95718,1.891618e-12,0,0,1.891618e-12,-1.110223e-16,2.220446e-16,-3.176133e-18,0,0,0,0,2.220749e-16,-1.110526e-16,1.665637e-16,-44.453693,2.22085e-16,1.958593e-16,0,0,0,0,0,0
2.728091,-2.013827,-10.944989,1.891618e-12,0,0,1.891618e-12,2.220446e-16,0,3.304962e-17,0,0,0,0,2.268594e-16,-4.814778e-18,1.158371e-16,53.288727,1.544494e-16,1.528698e-16,0,0,0,0,0,0
2.775382,-2.013827,-10.931867,1.891618e-12,0,0,1.891618e-12,-1.110223e-16,-1.110223e-16,7.80336e-18,0,0,0,0,-1.032189e-16,-1.188257e-16,7.80336e-18,90,1.040448e-17,7.456132e-17,0,0,0,0,0,0
2.822672,-2.013827,-10.918468,1.891618e-12,0,0,1.891618e-12,-1.110223e-16,-1.110223e-16,2.323682e-17,0,0,0,0,-8.778548e-17,-1.342591e-16,2.323682e-17,90,3.098243e-17,7.872823e-17,0,0,0,0,0,0
2.869963,-2.013827,-10.903558,1.891618e-12,0,0,1.891618e-12,0,2.220446e-16,5.078966e-17,0,0,0,0,2.331106e-16,-1.106595e-17,1.220882e-16,-57.291397,1.627843e-16,1.592239e-16,0,0,0,0,0,0
2.917253,-2.013827,-10.885748,1.891618e-12,0,0,1.891618e-12,0,2.220446e-16,6.85308e-20,0,0,0,0,2.220446e-16,-2.115102e-23,1.110223e-16,-45.017685,1.480298e-16,1.480298e-16,0,0,0,0,0,0
2.964544,-2.013827,-10.864259,1.891618e-12,0,0,1.891618e-12,-2.220446e-16,4.440892e-16,-1.743208e-17,0,0,0,0,4.445451e-16,-2.225005e-16,3.335228e-16,-43.501991,4.44697e-16,3.921668e-16,0,0,0,0,0,0
3.011834,-2.013827,-10.839097,1.891618e-12,0,0,1.891618e-12,0,-1.110223e-16,-3.60132e-17,0,0,0,0,1.065862e-17,-1.216809e-16,6.616977e-17,28.51313,8.822636e-17,8.489681e-17,0,0,0,0,0,0
3.059125,-2.013827,-10.810648,1.891618e-12,0,0,1.891618e-12,0,0,-1.815425e-17,0,0,0,0,1.815425e-17,-1.815425e-17,1.815425e-17,0,2.420567e-17,2.096272e-17,0,0,0,0,0,0
3.106415,-2.013827,-10.778749,1.891618e-12,0,0,1.891618e-12,-2.220446e-16,-1.110223e-16,-1.910665e-17,0,0,0,0,-1.078261e-16,-2.252408e-16,5.870734e-17,-35.503403,7.827646e-17,1.300821e-16,0,0,0,0,0,0
3.153705,-2.013827,-10.743153,1.891618e-12,0,0,1.891618e-12,0,0,-1.886141e-18,0,0,0,0,1.886141e-18,-1.886141e-18,1.886141e-18,0,2.514854e-18,2.177928e-18,0,0,0,0,0,0
3.200996,-2.013827,-10.703343,1.891618e-12,0,0,1.891618e-12,-2.220446e-16,0,9.318473e-18,0,0,0,0,3.90379e-19,-2.22435e-16,1.114127e-16,-47.398891,1.485502e-16,1.484203e-16,0,0,0,0,0,0
3.248286,-2.013827,-10.658442,1.891618e-12,0,0,1.891618e-12,0,2.220446e-16,-3.321807e-17,0,0,0,0,2.269076e-16,-4.862951e-18,1.158853e-16,-36.67136,1.545137e-16,1.529185e-16,0,0,0,0,0,0
3.295577,-2.013827,-10.605244,1.891618e-12,0,0,1.891618e-12,2.220446e-16,0,-4.127828e-19,0,0,0,0,2.220454e-16,-7.67364e-22,1.110231e-16,44.893486,1.480308e-16,1.480305e-16,0,0,0,0,0,0
3.342867,-2.013827,-10.57401,1.891618e-12,0,0,1.891618e-12,2.220446e-16,-4.440892e-16,-4.258762e-17,0,0,0,0,2.247563e-16,-4.468009e-16,3.357786e-16,41.356705,4.477048e-16,3.947251e-16,0,0,0,0,0,0
1.451249,-2.061118,-10.199308,1.891618e-12,0,0,1.891618e-12,0,2.220446e-16,7.035704e-19,0,0,0,0,2.220468e-16,-2.22931e-21,1.110245e-16,-45.181545,1.480327e-16,1.48032e-16,0,0,0,0,0,0
1.49854,-2.061118,-10.313337,1.891618e-12,0,0,1.891618e-12,0,-1.110223e-16,-3.518927e-17,0,0,0,0,1.021383e-17,-1.212361e-16,6.572498e-17,28.814417,8.763331e-17,8.443487e-17,0,0,0,0,0,0
1.54583,-2.061118,-10.411287,1.891618e-12,0,0,1.891618e-12,0,2.220446e-16,-4.14518e-17,0,0,0,0,2.295305e-16,-7.485939e-18,1.185082e-16,-34.763073,1.58011e-16,1.555757e-16,0,0,0,0,0,0
1.593121,-2.061118,-10.49178,1.891618e-12,0,0,1.891618e-12,2.220446e-16,-1.110223e-16,-2.515382e-17,0,0,0,0,2.239335e-16,-1.129113e-16,1.684224e-16,40.705383,2.245632e-16,1.979672e-16,0,0,0,0,0,0
1.640411,-2.061118,-10.557074,1.891618e-12,0,0,1.891618e-12,-3.330669e-16,0,-1.571802e-17,0,0,0,0,7.401169e-19,-3.33807e-16,1.672736e-16,-42.304096,2.230314e-16,2.227851e-16,0,0,0,0,0,0
1.687701,-2.061118,-10.608411,1.891618e-12,0,0,1.891618e-12,2.220446e-16,2.220446e-16,-1.126721e-17,0,0,0,0,2.333118e-16,2.107774e-16,1.126721e-17,0,1.502295e-17,1.486004e-16,0,0,0,0,0,0
1.734992,-2.061118,-10.652089,1.891618e-12,0,0,1.891618e-12,4.440892e-16,-2.220446e-16,-1.76344e-17,0,0,0,0,4.445557e-16,-2.225111e-16,3.335334e-16,43.484638,4.447112e-16,3.921788e-16,0,0,0,0,0,0
1.782282,-2.061118,-10.693337,1.891618e-12,0,0,1.891618e-12,0,0,2.222121e-17,0,0,0,0,2.222121e-17,-2.222121e-17,2.222121e-17,90,2.962828e-17,2.565884e-17,0,0,0,0,0,0
1.829573,-2.061118,-10.733781,1.891618e-12,0,0,1.891618e-12,-4.440892e-16,2.220446e-16,-3.326755e-17,0,0,0,0,2.237019e-16,-4.457465e-16,3.347242e-16,-42.148037,4.46299e-16,3.935292e-16,0,0,0,0,0,0
1.876863,-2.061118,-10.772746,1.891618e-12,0,0,1.891618e-12,2.220446e-16,0,2.842143e-17,0,0,0,0,2.256248e-16,-3.580182e-18,1.146025e-16,52.1796,1.528033e-16,1.51624e-16,0,0,0,0,0,0
1.924154,-2.061118,-10.809507,1.891618e-12,0,0,1.891618e-12,-2.220446e-16,-4.440892e-16,-1.232269e-17,0,0,0,0,-2.213628e-16,-4.44771e-16,1.117041e-16,41.833248,1.489388e-16,2.567896e-16,0,0,0,0,0,0
1.971444,-2.061118,-10.84304,1.891618e-12,0,0,1.891618e-12,-2.220446e-16,2.220446e-16,-2.040233e-17,0,0,0,0,2.2298e-16,-2.2298e-16,2.2298e-16,-42.375092,2.973066e-16,2.574751e-16,0,0,0,0,0,0
2.018735,-2.061118,-10.873124,1.891618e-12,0,0,1.891618e-12,2.220446e-16,2.220446e-16,6.899131e-18,0,0,0,0,2.289437e-16,2.151455e-16,6.899131e-18,90,9.198841e-18,1.482439e-16,0,0,0,0,0,0
2.066025,-2.061118,-10.898651,1.891618e-12,0,0,1.891618e-12,2.220446e-16,2.220446e-16,-2.044605e-17,0,0,0,0,2.424907e-16,2.015986e-16,2.044605e-17,0,2.726141e-17,1.499006e-16,0,0,0,0,0,0
2.113316,-2.061118,-10.91832,1.891618e-12,0,0,1.891618e-12,0,2.220446e-16,2.191426e-17,0,0,0,0,2.241867e-16,-2.142119e-18,1.131644e-16,-50.582928,1.508859e-16,1.501769e-16,0,0,0,0,0,0
2.160606,-2.061118,-10.932066,1.891618e-12,0,0,1.891618e-12,-1.110223e-16,2.220446e-16,-3.819114e-18,0,0,0,0,2.220884e-16,-1.110661e-16,1.665772e-16,-44.343132,2.22103e-16,1.958746e-16,0,0,0,0,0,0
2.207896,-2.061118,-10.941533,1.891618e-12,0,0,1.891618e-12,0,2.220446e-16,8.8338e-18,0,0,0,0,2.223955e-16,-3.508885e-19,1.113732e-16,-47.274658,1.484976e-16,1.483808e-16,0,0,0,0,0,0
2.255187,-2.061118,-10.949923,1.891618e-12,0,0,1.891618e-12,-1.110223e-16,0,-1.35433e-17,0,0,0,0,1.628229e-18,-1.126505e-16,5.713938e-17,-38.144573,7.618584e-17,7.564894e-17,0,0,0,0,0,0
2.302477,-2.061118,-10.958698,1.891618e-12,0,0,1.891618e-12,0,0,-1.639449e-17,0,0,0,0,1.639449e-17,-1.639449e-17,1.639449e-17,0,2.185932e-17,1.893073e-17,0,0,0,0,0,0
2.349768,-2.061118,-10.966862,1.891618e-12,0,0,1.891618e-12,0,0,6.968068e-18,0,0,0,0,6.968068e-18,-6.968068e-18,6.968068e-18,90,9.290757e-18,8.046032e-18,0,0,0,0,0,0
2.397058,-2.061118,-10.973568,1.891618e-12,0,0,1.891618e-12,-2.220446e-16,2.220446e-16,-2.916584e-17,0,0,0,0,2.239519e-16,-2.239519e-16,2.239519e-16,-41.258484,2.986025e-16,2.585974e-16,0,0,0,0,0,0
2.444349,-2.061118,-10.977374,1.891618e-12,0,0,1.891618e-12,-1.110223e-16,0,3.826835e-17,0,0,0,0,1.191254e-17,-1.229348e-16,6.742369e-17,-62.290825,8.989825e-17,8.620222e-17,0,0,0,0,0,0
2.491639,-2.061118,-10.978175,1.891618e-12,0,0,1.891618e-12,-1.110223e-16,2.220446e-16,-9.229471e-18,0,0,0,0,2.223002e-16,-1.112779e-16,1.66789e-16,-43.413925,2.223854e-16,1.961147e-16,0,0,0,0,0,0
2.53893,-2.061118,-10.976918,1.891618e-12,0,0,1.891618e-12,2.220446e-16,-1.110223e-16,-8.151803e-19,0,0,0,0,2.220466e-16,-1.110243e-16,1.665355e-16,44.859772,2.220473e-16,1.958272e-16,0,0,0,0,0,0
2.58622,-2.061118,-10.973604,1.891618e-12,0,0,1.891618e-12,-2.220446e-16,0,1.925917e-17,0,0,0,0,1.658075e-18,-2.237027e-16,1.126804e-16,-49.920616,1.502405e-16,1.496909e-16,0,0,0,0,0,0
2.633511,-2.061118,-10.967548,1.891618e-12,0,0,1.891618e-12,2.220446e-16,2.220446e-16,3.939149e-17,0,0,0,0,2.614361e-16,1.826531e-16,3.939149e-17,90,5.252198e-17,1.548603e-16,0,0,0,0,0,0
2.680801,-2.061118,-10.958994,1.891618e-12,0,0,1.891618e-12,0,-1.110223e-16,4.765664e-17,0,0,0,0,1.765061e-17,-1.286729e-16,7.316176e-17,65.323135,9.754901e-17,9.223019e-17,0,0,0,0,0,0
2.728091,-2.061118,-10.948185,1.891618e-12,0,0,1.891618e-12,0,-1.110223e-16,-4.109759e-17,0,0,0,0,1.355765e-17,-1.2458e-16,6.906881e-17,26.74283,9.209174e-17,8.792165e-17,0,0,0,0,0,0
2.775382,-2.061118,-10.935841,1.891618e-12,0,0,1.891618e-12,-1.110223e-16,2.220446e-16,-2.598271e-17,0,0,0,0,2.240594e-16,-1.13037e-16,1.685482e-16,-40.566074,2.247309e-16,1.981099e-16,0,0,0,0,0,0
2.822672,-2.061118,-10.922194,1.891618e-12,0,0,1.891618e-12,-2.220446e-16,-2.220446e-16,7.080358e-18,0,0,0,0,-2.149642e-16,-2.29125e-16,7.080358e-18,90,9.440476e-18,1.482553e-16,0,0,0,0,0,0
2.869963,-2.061118,-10.906361,1.891618e-12,0,0,1.891618e-12,2.220446e-16,0,-1.638129e-17,0,0,0,0,2.232466e-16,-1.202019e-18,1.122243e-16,40.803299,1.496324e-16,1.492334e-16,0,0,0,0,0,0
2.917253,-2.061118,-10.887367,1.891618e-12,0,0,1.891618e-12,2.220446e-16,2.220446e-16,-2.047464e-18,0,0,0,0,2.240921e-16,2.199971e-16,2.047464e-18,0,2.729952e-18,1.480486e-16,0,0,0,0,0,0
2.964544,-2.061118,-10.864843,1.891618e-12,0,0,1.891618e-12,-1.110223e-16,0,1.028739e-18,0,0,0,0,9.531529e-21,-1.110318e-16,5.552068e-17,-45.530846,7.402758e-17,7.40244e-17,0,0,0,0,0,0
3.011834,-2.061118,-10.839171,1.891618e-12,0,0,1.891618e-12,-1.110223e-16,0,-6.418864e-18,0,0,0,0,3.698807e-19,-1.113922e-16,5.588103e-17,-41.702034,7.450804e-17,7.438506e-17,0,0,0,0,0,0
3.059125,-2.061118,-10.810728,1.891618e-12,0,0,1.891618e-12,-1.110223e-16,-4.440892e-16,-6.104259e-18,0,0,0,0,-1.109105e-16,-4.442011e-16,1.666453e-16,43.950386,2.221937e-16,2.669575e-16,0,0,0,0,0,0
3.106415,-2.061118,-10.77917,1.891618e-12,0,0,1.891618e-12,0,-1.110223e-16,-2.05485e-17,0,0,0,0,3.681151e-18,-1.147035e-16,5.91923e-17,34.84351,7.892307e-17,7.772508e-17,0,0,0,0,0,0
3.153705,-2.061118,-10.74402,1.891618e-12,0,0,1.891618e-12,2.220446e-16,0,8.214495e-18,0,0,0,0,2.223481e-16,-3.034788e-19,1.113258e-16,47.115791,1.484344e-16,1.483333e-16,0,0,0,0,0,0
3.200996,-2.061118,-10.704496,1.891618e-12,0,0,1.891618e-12,0,0,-9.38638e-18,0,0,0,0,9.38638e-18,-9.38638e-18,9.38638e-18,0,1.251517e-17,1.083846e-17,0,0,0,0,0,0
3.248286,-2.061118,-10.65959,1.891618e-12,0,0,1.891618e-12,-2.220446e-16,2.220446e-16,-2.633188e-17,0,0,0,0,2.236005e-16,-2.236005e-16,2.236005e-16,-41.618488,2.98134e-16,2.581916e-16,0,0,0,0,0,0
3.295577,-2.061118,-10.60838,1.891618e-12,0,0,1.891618e-12,-2.220446e-16,-2.220446e-16,-1.260714e-17,0,0,0,0,-2.094375e-16,-2.346517e-16,1.260714e-17,0,1.680952e-17,1.487438e-16,0,0,0,0,0,0
3.342867,-2.061118,-10.553229,1.891618e-12,0,0,1.891618e-12,0,2.220446e-16,-6.021887e-17,0,0,0,0,2.373246e-16,-1.527997e-17,1.263023e-16,-30.762224,1.68403e-16,1.635478e-16,0,0,0,0,0,0
3.390158,-2.061118,-10.520388,1.891618e-12,0,0,1.891618e-12,-4.440892e-16,-2.220446e-16,1.256413e-18,0,0,0,0,-2.220375e-16,-4.440963e-16,1.110294e-16,-45.324188,1.480392e-16,2.563991e-16,0,0,0,0,0,0
1.451249,-2.108408,-10.201287,1.891618e-12,0,0,1.891618e-12,-4.440892e-16,-3.330669e-16,4.349973e-17,0,0,0,0,-3.180535e-16,-4.591026e-16,7.052457e-17,-64.041504,9.403276e-17,2.715503e-16,0,0,0,0,0,0
1.49854,-2.108408,-10.317897,1.891618e-12,0,0,1.891618e-12,2.220446e-16,0,-6.869554e-17,0,0,0,0,2.415789e-16,-1.953431e-17,1.305566e-16,29.126335,1.740755e-16,1.679432e-16,0,0,0,0,0,0
1.54583,-2.108408,-10.417189,1.891618e-12,0,0,1.891618e-12,0,0,5.733795e-18,0,0,0,0,5.733795e-18,-5.733795e-18,5.733795e-18,90,7.64506e-18,6.620816e-18,0,0,0,0,0,0
1.593121,-2.108408,-10.49757,1.891618e-12,0,0,1.891618e-12,-4.440892e-16,-1.110223e-16,3.360585e-17,0,0,0,0,-1.076654e-16,-4.474462e-16,1.698904e-16,-50.704433,2.265205e-16,2.696709e-16,0,0,0,0,0,0
1.640411,-2.108408,-10.562477,1.891618e-12,0,0,1.891618e-12,0,0,6.647316e-18,0,0,0,0,6.647316e-18,-6.647316e-18,6.647316e-18,90,8.863089e-18,7.67566e-18,0,0,0,0,0,0
1.687701,-2.108408,-10.613598,1.891618e-12,0,0,1.891618e-12,2.220446e-16,-5.551115e-16,1.719339e-17,0,0,0,0,2.224248e-16,-5.554917e-16,3.889582e-16,46.266754,5.18611e-16,4.626489e-16,0,0,0,0,0,0
1.734992,-2.108408,-10.656509,1.891618e-12,0,0,1.891618e-12,-2.220446e-16,-2.220446e-16,-2.88339e-17,0,0,0,0,-1.932107e-16,-2.508785e-16,2.88339e-17,0,3.84452e-17,1.517278e-16,0,0,0,0,0,0
1.782282,-2.108408,-10.697185,1.891618e-12,0,0,1.891618e-12,-2.220446e-16,0,-3.14536e-17,0,0,0,0,4.369553e-18,-2.264142e-16,1.153919e-16,-37.091053,1.538558e-16,1.524202e-16,0,0,0,0,0,0
1.829573,-2.108408,-10.736675,1.891618e-12,0,0,1.891618e-12,2.220446e-16,2.220446e-16,4.406983e-17,0,0,0,0,2.661144e-16,1.779748e-16,4.406983e-17,90,5.875977e-17,1.565322e-16,0,0,0,0,0,0
1.876863,-2.108408,-10.774881,1.891618e-12,0,0,1.891618e-12,0,2.220446e-16,-2.933319e-19,0,0,0,0,2.22045e-16,-3.875053e-22,1.110227e-16,-44.924309,1.480303e-16,1.480301e-16,0,0,0,0,0,0
1.924154,-2.108408,-10.811585,1.891618e-12,0,0,1.891618e-12,0,0,-1.246519e-18,0,0,0,0,1.246519e-18,-1.246519e-18,1.246519e-18,0,1.662026e-18,1.439357e-18,0,0,0,0,0,0
1.971444,-2.108408,-10.845157,1.891618e-12,0,0,1.891618e-12,-2.220446e-16,2.220446e-16,-3.309064e-17,0,0,0,0,2.244968e-16,-2.244968e-16,2.244968e-16,-40.761883,2.99329e-16,2.592265e-16,0,0,0,0,0,0
2.018735,-2.108408,-10.875205,1.891618e-12,0,0,1.891618e-12,-1.110223e-16,0,-2.851415e-18,0,0,0,0,7.318539e-20,-1.110955e-16,5.558433e-17,-43.529751,7.411245e-17,7.408807e-17,0,0,0,0,0,0
2.066025,-2.108408,-10.900634,1.891618e-12,0,0,1.891618e-12,0,2.220446e-16,-4.718164e-18,0,0,0,0,2.221448e-16,-1.002097e-19,1.111225e-16,-43.783272,1.481633e-16,1.4813e-16,0,0,0,0,0,0
2.113316,-2.108408,-10.919991,1.891618e-12,0,0,1.891618e-12,2.220446e-16,-1.110223e-16,-2.251362e-17,0,0,0,0,2.235595e-16,-1.125372e-16,1.680484e-16,41.150436,2.240645e-16,1.97543e-16,0,0,0,0,0,0
2.160606,-2.108408,-10.933272,1.891618e-12,0,0,1.891618e-12,-1.110223e-16,0,1.911311e-18,0,0,0,0,3.289453e-20,-1.110552e-16,5.554405e-17,-45.985989,7.405873e-17,7.404777e-17,0,0,0,0,0,0
2.207896,-2.108408,-10.942329,1.891618e-12,0,0,1.891618e-12,0,2.220446e-16,4.839683e-17,0,0,0,0,2.321347e-16,-1.009006e-17,1.211124e-16,-56.776672,1.614832e-16,1.582271e-16,0,0,0,0,0,0
2.255187,-2.108408,-10.95075,1.891618e-12,0,0,1.891618e-12,-2.220446e-16,0,1.458833e-17,0,0,0,0,9.543519e-19,-2.229989e-16,1.119767e-16,-48.742889,1.493022e-16,1.489851e-16,0,0,0,0,0,0
2.302477,-2.108408,-10.960406,1.891618e-12,0,0,1.891618e-12,-1.110223e-16,2.220446e-16,2.04038e-18,0,0,0,0,2.220571e-16,-1.110348e-16,1.665459e-16,-45.350979,2.220613e-16,1.958391e-16,0,0,0,0,0,0
2.349768,-2.108408,-10.970493,1.891618e-12,0,0,1.891618e-12,2.220446e-16,2.220446e-16,3.694965e-18,0,0,0,0,2.257396e-16,2.183496e-16,3.694965e-18,90,4.926619e-18,1.480912e-16,0,0,0,0,0,0
2.397058,-2.108408,-10.979507,1.891618e-12,0,0,1.891618e-12,0,2.220446e-16,-1.653683e-17,0,0,0,0,2.232694e-16,-1.224828e-18,1.122471e-16,-40.764027,1.496628e-16,1.492562e-16,0,0,0,0,0,0
2.444349,-2.108408,-10.984712,1.891618e-12,0,0,1.891618e-12,-2.220446e-16,2.220446e-16,-1.216073e-17,0,0,0,0,2.223774e-16,-2.223774e-16,2.223774e-16,-43.432606,2.965031e-16,2.567793e-16,0,0,0,0,0,0
2.491639,-2.108408,-10.985177,1.891618e-12,0,0,1.891618e-12,2.220446e-16,0,-4.625329e-18,0,0,0,0,2.221409e-16,-9.630676e-20,1.111186e-16,43.807182,1.481581e-16,1.481261e-16,0,0,0,0,0,0
2.53893,-2.108408,-10.982128,1.891618e-12,0,0,1.891618e-12,-2.220446e-16,-1.110223e-16,3.231124e-17,0,0,0,0,-1.023034e-16,-2.307635e-16,6.423009e-17,-60.101151,8.564012e-17,1.335164e-16,0,0,0,0,0,0
2.58622,-2.108408,-10.976578,1.891618e-12,0,0,1.891618e-12,2.220446e-16,0,-2.720531e-18,0,0,0,0,2.220779e-16,-3.332744e-20,1.110556e-16,44.298141,1.480742e-16,1.480631e-16,0,0,0,0,0,0
2.633511,-2.108408,-10.969391,1.891618e-12,0,0,1.891618e-12,2.220446e-16,-1.110223e-16,-2.901055e-17,0,0,0,0,2.245526e-16,-1.135303e-16,1.690414e-16,40.059048,2.253886e-16,1.986695e-16,0,0,0,0,0,0
2.680801,-2.108408,-10.961188,1.891618e-12,0,0,1.891618e-12,0,-2.220446e-16,-1.778467e-17,0,0,0,0,1.415441e-18,-2.2346e-16,1.124377e-16,40.449551,1.49917e-16,1.494474e-16,0,0,0,0,0,0
2.728091,-2.108408,-10.951231,1.891618e-12,0,0,1.891618e-12,2.220446e-16,-1.110223e-16,5.036552e-18,0,0,0,0,2.221208e-16,-1.110984e-16,1.666096e-16,45.86615,2.221461e-16,1.959113e-16,0,0,0,0,0,0
2.775382,-2.108408,-10.939155,1.891618e-12,0,0,1.891618e-12,0,-1.110223e-16,2.293866e-17,0,0,0,0,4.55273e-18,-1.15575e-16,6.006388e-17,56.225845,8.008517e-17,7.861155e-17,0,0,0,0,0,0
2.822672,-2.108408,-10.92488,1.891618e-12,0,0,1.891618e-12,-2.220446e-16,2.220446e-16,-6.01045e-18,0,0,0,0,2.221259e-16,-2.221259e-16,2.221259e-16,-44.224728,2.961679e-16,2.564889e-16,0,0,0,0,0,0
2.869963,-2.108408,-10.907723,1.891618e-12,0,0,1.891618e-12,0,2.220446e-16,1.836702e-17,0,0,0,0,2.235536e-16,-1.509023e-18,1.125313e-16,-49.696835,1.500418e-16,1.495413e-16,0,0,0,0,0,0
2.917253,-2.108408,-10.887258,1.891618e-12,0,0,1.891618e-12,2.220446e-16,-1.110223e-16,-8.413649e-18,0,0,0,0,2.22257e-16,-1.112347e-16,1.667459e-16,43.553875,2.223278e-16,1.960658e-16,0,0,0,0,0,0
2.964544,-2.108408,-10.863739,1.891618e-12,0,0,1.891618e-12,-1.110223e-16,0,-1.905521e-17,0,0,0,0,3.179468e-18,-1.142018e-16,5.869062e-17,-35.527145,7.825416e-17,7.721616e-17,0,0,0,0,0,0
3.011834,-2.108408,-10.83746,1.891618e-12,0,0,1.891618e-12,2.220446e-16,0,4.937855e-18,0,0,0,0,2.221543e-16,-1.097544e-19,1.111321e-16,46.273312,1.481761e-16,1.481395e-16,0,0,0,0,0,0
3.059125,-2.108408,-10.808859,1.891618e-12,0,0,1.891618e-12,2.220446e-16,2.220446e-16,1.613822e-17,0,0,0,0,2.381828e-16,2.059064e-16,1.613822e-17,90,2.151762e-17,1.491981e-16,0,0,0,0,0,0
3.106415,-2.108408,-10.777695,1.891618e-12,0,0,1.891618e-12,0,-2.220446e-16,2.035425e-17,0,0,0,0,1.850401e-18,-2.23895e-16,1.128727e-16,50.194469,1.504969e-16,1.498839e-16,0,0,0,0,0,0
3.153705,-2.108408,-10.743036,1.891618e-12,0,0,1.891618e-12,0,2.220446e-16,-2.233674e-17,0,0,0,0,2.242693e-16,-2.224691e-18,1.13247e-16,-39.312222,1.50996e-16,1.502599e-16,0,0,0,0,0,0
3.200996,-2.108408,-10.703769,1.891618e-12,0,0,1.891618e-12,-2.220446e-16,0,3.198153e-17,0,0,0,0,4.514574e-18,-2.265592e-16,1.155369e-16,-53.034893,1.540492e-16,1.525666e-16,0,0,0,0,0,0
3.248286,-2.108408,-10.658604,1.891618e-12,0,0,1.891618e-12,0,0,-1.174852e-17,0,0,0,0,1.174852e-17,-1.174852e-17,1.174852e-17,0,1.56647e-17,1.356603e-17,0,0,0,0,0,0
3.295577,-2.108408,-10.605172,1.891618e-12,0,0,1.891618e-12,4.440892e-16,-1.110223e-16,-3.26377e-18,0,0,0,0,4.441084e-16,-1.110415e-16,2.775749e-16,44.663147,3.700999e-16,3.391997e-16,0,0,0,0,0,0
3.342867,-2.108408,-10.559768,1.891618e-12,0,0,1.891618e-12,0,-1.110223e-16,-3.63823e-18,0,0,0,0,1.19098e-19,-1.111414e-16,5.563025e-17,43.125084,7.417366e-17,7.4134e-17,0,0,0,0,0,0
1.451249,-2.155699,-10.194918,1.891618e-12,0,0,1.891618e-12,0,0,1.1089e-16,0,0,0,0,1.1089e-16,-1.1089e-16,1.1089e-16,90,1.478533e-16,1.280447e-16,0,0,0,0,0,0
1.49854,-2.155699,-10.319538,1.891618e-12,0,0,1.891618e-12,0,2.220446e-16,-2.164818e-18,0,0,0,0,2.220657e-16,-2.110383e-20,1.110434e-16,-44.441467,1.480579e-16,1.480508e-16,0,0,0,0,0,0
1.54583,-2.155699,-10.420054,1.891618e-12,0,0,1.891618e-12,0,2.220446e-16,5.547476e-18,0,0,0,0,2.221831e-16,-1.385096e-19,1.111608e-16,-46.430267,1.482144e-16,1.481683e-16,0,0,0,0,0,0
1.593121,-2.155699,-10.501106,1.891618e-12,0,0,1.891618e-12,0,2.220446e-16,3.764977e-17,0,0,0,0,2.282548e-16,-6.210187e-18,1.172325e-16,-54.366386,1.5631e-16,1.542816e-16,0,0,0,0,0,0
1.640411,-2.155699,-10.566124,1.891618e-12,0,0,1.891618e-12,0,-1.110223e-16,-3.867989e-17,0,0,0,0,1.214697e-17,-1.231693e-16,6.765812e-17,27.565706,9.021083e-17,8.644678e-17,0,0,0,0,0,0
1.687701,-2.155699,-10.618549,1.891618e-12,0,0,1.891618e-12,2.220446e-16,2.220446e-16,1.573151e-17,0,0,0,0,2.377761e-16,2.063131e-16,1.573151e-17,90,2.097534e-17,1.491401e-16,0,0,0,0,0,0
1.734992,-2.155699,-10.662019,1.891618e-12,0,0,1.891618e-12,0,-2.220446e-16,-1.457437e-17,0,0,0,0,9.525331e-19,-2.229971e-16,1.119748e-16,41.260654,1.492998e-16,1.489833e-16,0,0,0,0,0,0
1.782282,-2.155699,-10.702539,1.891618e-12,0,0,1.891618e-12,0,0,-5.125755e-17,0,0,0,0,5.125755e-17,-5.125755e-17,5.125755e-17,0,6.83434e-17,5.918712e-17,0,0,0,0,0,0
1.829573,-2.155699,-10.741369,1.891618e-12,0,0,1.891618e-12,0,0,1.02312e-17,0,0,0,0,1.02312e-17,-1.02312e-17,1.02312e-17,90,1.36416e-17,1.181398e-17,0,0,0,0,0,0
1.876863,-2.155699,-10.778599,1.891618e-12,0,0,1.891618e-12,0,0,4.248018e-18,0,0,0,0,4.248018e-18,-4.248018e-18,4.248018e-18,90,5.664024e-18,4.905189e-18,0,0,0,0,0,0
1.924154,-2.155699,-10.814558,1.891618e-12,0,0,1.891618e-12,2.220446e-16,-1.110223e-16,-2.250851e-17,0,0,0,0,2.235588e-16,-1.125365e-16,1.680477e-16,41.151302,2.240636e-16,1.975422e-16,0,0,0,0,0,0
1.971444,-2.155699,-10.847725,1.891618e-12,0,0,1.891618e-12,2.220446e-16,-1.110223e-16,-1.778864e-17,0,0,0,0,2.22992e-16,-1.119697e-16,1.674808e-16,41.951473,2.233078e-16,1.968993e-16,0,0,0,0,0,0
2.018735,-2.155699,-10.877315,1.891618e-12,0,0,1.891618e-12,2.220446e-16,2.220446e-16,1.21109e-17,0,0,0,0,2.341555e-16,2.099337e-16,1.21109e-17,90,1.614787e-17,1.486888e-16,0,0,0,0,0,0
2.066025,-2.155699,-10.902172,1.891618e-12,0,0,1.891618e-12,2.220446e-16,-1.110223e-16,2.379822e-17,0,0,0,0,2.237364e-16,-1.127141e-16,1.682253e-16,49.066353,2.243004e-16,1.977436e-16,0,0,0,0,0,0
2.113316,-2.155699,-10.920924,1.891618e-12,0,0,1.891618e-12,2.220446e-16,2.220446e-16,-2.985814e-18,0,0,0,0,2.250304e-16,2.190588e-16,2.985814e-18,0,3.981085e-18,1.480699e-16,0,0,0,0,0,0
2.160606,-2.155699,-10.933389,1.891618e-12,0,0,1.891618e-12,-5.551115e-16,-1.110223e-16,-3.380947e-17,0,0,0,0,-1.084631e-16,-5.576708e-16,2.246038e-16,-40.6712,2.994718e-16,3.414181e-16,0,0,0,0,0,0
2.207896,-2.155699,-10.941671,1.891618e-12,0,0,1.891618e-12,2.220446e-16,0,-4.276516e-17,0,0,0,0,2.299963e-16,-7.951689e-18,1.18974e-16,34.466801,1.58632e-16,1.56049e-16,0,0,0,0,0,0
2.255187,-2.155699,-10.949758,1.891618e-12,0,0,1.891618e-12,0,-1.110223e-16,-3.829923e-17,0,0,0,0,1.193007e-17,-1.229524e-16,6.744123e-17,27.698376,8.992163e-17,8.62205e-17,0,0,0,0,0,0
2.302477,-2.155699,-10.959646,1.891618e-12,0,0,1.891618e-12,2.220446e-16,-1.110223e-16,-4.601239e-17,0,0,0,0,2.282842e-16,-1.172619e-16,1.727731e-16,37.27739,2.303641e-16,2.029046e-16,0,0,0,0,0,0
2.349768,-2.155699,-10.97114,1.891618e-12,0,0,1.891618e-12,4.440892e-16,-1.110223e-16,-5.131069e-17,0,0,0,0,4.487921e-16,-1.157253e-16,2.822587e-16,39.763096,3.76345e-16,3.443147e-16,0,0,0,0,0,0
2.397058,-2.155699,-10.982389,1.891618e-12,0,0,1.891618e-12,2.220446e-16,-4.440892e-16,4.108083e-17,0,0,0,0,2.245685e-16,-4.466131e-16,3.355908e-16,48.515705,4.474544e-16,3.945121e-16,0,0,0,0,0,0
2.444349,-2.155699,-10.989568,1.891618e-12,0,0,1.891618e-12,-1.110223e-16,-1.110223e-16,-5.043553e-17,0,0,0,0,-6.058677e-17,-1.614578e-16,5.043553e-17,0,6.724738e-17,9.417992e-17,0,0,0,0,0,0
2.491639,-2.155699,-10.990909,1.891618e-12,0,0,1.891618e-12,-1.110223e-16,0,-5.887473e-18,0,0,0,0,3.113375e-19,-1.113336e-16,5.582249e-17,-41.972942,7.442998e-17,7.432643e-17,0,0,0,0,0,0
2.53893,-2.155699,-10.987491,1.891618e-12,0,0,1.891618e-12,-1.110223e-16,0,1.497814e-17,0,0,0,0,1.98522e-18,-1.130075e-16,5.749637e-17,-52.550041,7.666183e-17,7.600873e-17,0,0,0,0,0,0
2.58622,-2.155699,-10.980735,1.891618e-12,0,0,1.891618e-12,-1.110223e-16,-1.110223e-16,4.321234e-17,0,0,0,0,-6.780996e-17,-1.542346e-16,4.321234e-17,90,5.761645e-17,8.926333e-17,0,0,0,0,0,0
2.633511,-2.155699,-10.972823,1.891618e-12,0,0,1.891618e-12,-2.220446e-16,0,1.414471e-17,0,0,0,0,8.974214e-19,-2.22942e-16,1.119197e-16,-48.630306,1.492263e-16,1.489281e-16,0,0,0,0,0,0
2.680801,-2.155699,-10.964562,1.891618e-12,0,0,1.891618e-12,0,-2.220446e-16,1.97972e-17,0,0,0,0,1.751279e-18,-2.237959e-16,1.127736e-16,50.055279,1.503648e-16,1.497844e-16,0,0,0,0,0,0
2.728091,-2.155699,-10.954707,1.891618e-12,0,0,1.891618e-12,2.220446e-16,0,2.773793e-17,0,0,0,0,2.254572e-16,-3.41259e-18,1.144349e-16,52.013836,1.525799e-16,1.514551e-16,0,0,0,0,0,0
2.775382,-2.155699,-10.942391,1.891618e-12,0,0,1.891618e-12,2.220446e-16,0,-1.907396e-17,0,0,0,0,2.236712e-16,-1.626567e-18,1.126489e-16,40.12579,1.501985e-16,1.496592e-16,0,0,0,0,0,0
2.822672,-2.155699,-10.927299,1.891618e-12,0,0,1.891618e-12,-2.220446e-16,-4.440892e-16,3.256009e-17,0,0,0,0,-2.173685e-16,-4.487653e-16,1.156984e-16,53.17255,1.542645e-16,2.591369e-16,0,0,0,0,0,0
2.869963,-2.155699,-10.908943,1.891618e-12,0,0,1.891618e-12,2.220446e-16,0,2.123099e-17,0,0,0,0,2.240564e-16,-2.011792e-18,1.130341e-16,50.413033,1.507121e-16,1.50046e-16,0,0,0,0,0,0
2.917253,-2.155699,-10.887364,1.891618e-12,0,0,1.891618e-12,2.220446e-16,0,1.225397e-17,0,0,0,0,2.227188e-16,-6.742127e-19,1.116965e-16,48.149235,1.489287e-16,1.487045e-16,0,0,0,0,0,0
2.964544,-2.155699,-10.86313,1.891618e-12,0,0,1.891618e-12,-1.110223e-16,0,-1.691291e-17,0,0,0,0,2.51931e-18,-1.135416e-16,5.803046e-17,-36.527641,7.737395e-17,7.6548e-17,0,0,0,0,0,0
3.011834,-2.155699,-10.836594,1.891618e-12,0,0,1.891618e-12,0,0,-1.737497e-17,0,0,0,0,1.737497e-17,-1.737497e-17,1.737497e-17,0,2.316662e-17,2.006289e-17,0,0,0,0,0,0
3.059125,-2.155699,-10.807998,1.891618e-12,0,0,1.891618e-12,0,-2.220446e-16,-2.924413e-17,0,0,0,0,3.786977e-18,-2.258316e-16,1.148093e-16,37.621529,1.53079e-16,1.518325e-16,0,0,0,0,0,0
3.106415,-2.155699,-10.777291,1.891618e-12,0,0,1.891618e-12,0,4.440892e-16,-6.590341e-17,0,0,0,0,4.53663e-16,-9.573759e-18,2.316184e-16,-36.734489,3.088245e-16,3.056832e-16,0,0,0,0,0,0
3.153705,-2.155699,-10.74316,1.891618e-12,0,0,1.891618e-12,4.440892e-16,-1.110223e-16,4.074644e-17,0,0,0,0,4.470641e-16,-1.139972e-16,2.805307e-16,49.175812,3.740409e-16,3.424265e-16,0,0,0,0,0,0
3.200996,-2.155699,-10.703926,1.891618e-12,0,0,1.891618e-12,-2.220446e-16,2.220446e-16,2.97523e-17,0,0,0,0,2.24029e-16,-2.24029e-16,2.24029e-16,-48.815872,2.987054e-16,2.586864e-16,0,0,0,0,0,0
3.248286,-2.155699,-10.658554,1.891618e-12,0,0,1.891618e-12,0,2.220446e-16,1.166608e-17,0,0,0,0,2.226558e-16,-6.112455e-19,1.116335e-16,-47.999275,1.488447e-16,1.486414e-16,0,0,0,0,0,0
3.295577,-2.155699,-10.602683,1.891618e-12,0,0,1.891618e-12,-2.220446e-16,0,-2.958936e-17,0,0,0,0,3.875399e-18,-2.2592e-16,1.148977e-16,-37.538288,1.531969e-16,1.519216e-16,0,0,0,0,0,0
3.342867,-2.155699,-10.573135,1.891618e-12,0,0,1.891618e-12,-3.330669e-16,2.220446e-16,-2.213201e-17,0,0,0,0,2.229256e-16,-3.339479e-16,2.784367e-16,-42.72047,3.71249e-16,3.236339e-16,0,0,0,0,0,0
1.49854,-2.202989,-10.319111,1.891618e-12,0,0,1.891618e-12,2.220446e-16,2.220446e-16,-1.367012e-17,0,0,0,0,2.357147e-16,2.083745e-16,1.367012e-17,0,1.822682e-17,1.48869e-16,0,0,0,0,0,0
1.54583,-2.202989,-10.420079,1.891618e-12,0,0,1.891618e-12,-1.110223e-16,0,-1.212156e-17,0,0,0,0,1.308036e-18,-1.123303e-16,5.681919e-17,-38.841049,7.575892e-17,7.532669e-17,0,0,0,0,0,0
1.593121,-2.202989,-10.502537,1.891618e-12,0,0,1.891618e-12,2.220446e-16,0,-3.536952e-17,0,0,0,0,2.275425e-16,-5.497888e-18,1.165202e-16,36.164574,1.553603e-16,1.535604e-16,0,0,0,0,0,0
1.640411,-2.202989,-10.568803,1.891618e-12,0,0,1.891618e-12,0,-1.110223e-16,1.619302e-17,0,0,0,0,2.313598e-18,-1.133359e-16,5.782475e-17,53.13118,7.709967e-17,7.634015e-17,0,0,0,0,0,0
1.687701,-2.202989,-10.623351,1.891618e-12,0,0,1.891618e-12,0,-1.110223e-16,6.93735e-18,0,0,0,0,4.318084e-19,-1.114541e-16,5.594296e-17,48.561722,7.459061e-17,7.44471e-17,0,0,0,0,0,0
1.734992,-2.202989,-10.66874,1.891618e-12,0,0,1.891618e-12,-2.220446e-16,0,-3.121798e-17,0,0,0,0,4.305551e-18,-2.263502e-16,1.153279e-16,-37.147366,1.537705e-16,1.523556e-16,0,0,0,0,0,0
1.782282,-2.202989,-10.709986,1.891618e-12,0,0,1.891618e-12,0,0,4.745581e-17,0,0,0,0,4.745581e-17,-4.745581e-17,4.745581e-17,90,6.327442e-17,5.479725e-17,0,0,0,0,0,0
1.829573,-2.202989,-10.74859,1.891618e-12,0,0,1.891618e-12,0,0,-6.243981e-18,0,0,0,0,6.243981e-18,-6.243981e-18,6.243981e-18,0,8.325308e-18,7.209929e-18,0,0,0,0,0,0
1.876863,-2.202989,-10.78472,1.891618e-12,0,0,1.891618e-12,0,-1.110223e-16,2.164357e-17,0,0,0,0,4.070153e-18,-1.150925e-16,5.95813e-17,55.650303,7.944174e-17,7.812037e-17,0,0,0,0,0,0
1.924154,-2.202989,-10.819219,1.891618e-12,0,0,1.891618e-12,2.220446e-16,-1.110223e-16,-1.456564e-17,0,0,0,0,2.226804e-16,-1.116581e-16,1.671692e-16,42.50071,2.228923e-16,1.965459e-16,0,0,0,0,0,0
1.971444,-2.202989,-10.85122,1.891618e-12,0,0,1.891618e-12,2.220446e-16,-2.220446e-16,-1.927305e-17,0,0,0,0,2.228795e-16,-2.228795e-16,2.228795e-16,42.519634,2.971726e-16,2.57359e-16,0,0,0,0,0,0
2.018735,-2.202989,-10.880083,1.891618e-12,0,0,1.891618e-12,0,2.220446e-16,1.404915e-17,0,0,0,0,2.2293e-16,-8.853843e-19,1.119077e-16,-48.606037,1.492103e-16,1.48916e-16,0,0,0,0,0,0
2.066025,-2.202989,-10.904543,1.891618e-12,0,0,1.891618e-12,-1.110223e-16,2.220446e-16,6.236632e-18,0,0,0,0,2.221613e-16,-1.11139e-16,1.666502e-16,-46.072353,2.222002e-16,1.959573e-16,0,0,0,0,0,0
2.113316,-2.202989,-10.922906,1.891618e-12,0,0,1.891618e-12,0,-1.110223e-16,1.667767e-17,0,0,0,0,2.451185e-18,-1.134735e-16,5.796234e-17,53.361134,7.728311e-17,7.647915e-17,0,0,0,0,0,0
2.160606,-2.202989,-10.934704,1.891618e-12,0,0,1.891618e-12,-1.110223e-16,-2.220446e-16,3.614754e-19,0,0,0,0,-1.110211e-16,-2.220458e-16,5.551233e-17,45.186546,7.401644e-17,1.281982e-16,0,0,0,0,0,0
2.207896,-2.202989,-10.942019,1.891618e-12,0,0,1.891618e-12,0,-1.110223e-16,6.667013e-18,0,0,0,0,3.989281e-19,-1.114212e-16,5.591008e-17,48.424274,7.454677e-17,7.441415e-17,0,0,0,0,0,0
2.255187,-2.202989,-10.948851,1.891618e-12,0,0,1.891618e-12,2.220446e-16,0,-3.443209e-17,0,0,0,0,2.272614e-16,-5.216763e-18,1.162391e-16,36.384708,1.549854e-16,1.532761e-16,0,0,0,0,0,0
2.302477,-2.202989,-10.957812,1.891618e-12,0,0,1.891618e-12,0,0,-9.006615e-18,0,0,0,0,9.006615e-18,-9.006615e-18,9.006615e-18,0,1.200882e-17,1.039994e-17,0,0,0,0,0,0
2.349768,-2.202989,-10.969385,1.891618e-12,0,0,1.891618e-12,2.220446e-16,4.440892e-16,1.475843e-17,0,0,0,0,4.450658e-16,2.21068e-16,1.119989e-16,-48.78603,1.493319e-16,2.569607e-16,0,0,0,0,0,0
2.397058,-2.202989,-10.981968,1.891618e-12,0,0,1.891618e-12,-1.110223e-16,0,2.855413e-17,0,0,0,0,6.913413e-18,-1.179357e-16,6.242456e-17,-58.610313,8.323275e-17,8.102666e-17,0,0,0,0,0,0
2.444349,-2.202989,-10.99126,1.891618e-12,0,0,1.891618e-12,-1.110223e-16,-1.110223e-16,-2.725411e-17,0,0,0,0,-8.37682e-17,-1.382764e-16,2.725411e-17,0,3.633881e-17,8.04275e-17,0,0,0,0,0,0
2.491639,-2.202989,-10.994477,1.891618e-12,0,0,1.891618e-12,4.440892e-16,-1.110223e-16,1.12721e-17,0,0,0,0,4.44318e-16,-1.112511e-16,2.777846e-16,46.162811,3.703794e-16,3.394284e-16,0,0,0,0,0,0
2.53893,-2.202989,-10.991916,1.891618e-12,0,0,1.891618e-12,2.220446e-16,2.220446e-16,1.882342e-20,0,0,0,0,2.220634e-16,2.220258e-16,1.882342e-20,90,2.509789e-20,1.480297e-16,0,0,0,0,0,0
2.58622,-2.202989,-10.985372,1.891618e-12,0,0,1.891618e-12,-1.110223e-16,0,-2.395188e-19,0,0,0,0,5.167338e-22,-1.110228e-16,5.551167e-17,-44.876392,7.401556e-17,7.401539e-17,0,0,0,0,0,0
2.633511,-2.202989,-10.977493,1.891618e-12,0,0,1.891618e-12,2.220446e-16,0,-1.144394e-17,0,0,0,0,2.226328e-16,-5.882495e-19,1.116106e-16,42.05743,1.488141e-16,1.486184e-16,0,0,0,0,0,0
2.680801,-2.202989,-10.969362,1.891618e-12,0,0,1.891618e-12,-2.220446e-16,0,4.529208e-17,0,0,0,0,8.883179e-18,-2.309278e-16,1.199055e-16,-56.096619,1.59874e-16,1.569967e-16,0,0,0,0,0,0
2.728091,-2.202989,-10.959413,1.891618e-12,0,0,1.891618e-12,0,-2.220446e-16,3.363956e-17,0,0,0,0,4.984472e-18,-2.270291e-16,1.160068e-16,53.428356,1.546757e-16,1.530413e-16,0,0,0,0,0,0
2.775382,-2.202989,-10.946573,1.891618e-12,0,0,1.891618e-12,0,-1.110223e-16,-3.513985e-17,0,0,0,0,1.018738e-17,-1.212097e-16,6.569853e-17,28.832621,8.759804e-17,8.440742e-17,0,0,0,0,0,0
2.822672,-2.202989,-10.930731,1.891618e-12,0,0,1.891618e-12,0,-1.110223e-16,8.486382e-18,0,0,0,0,6.449401e-19,-1.116672e-16,5.615609e-17,49.345955,7.487479e-17,7.466074e-17,0,0,0,0,0,0
2.869963,-2.202989,-10.911981,1.891618e-12,0,0,1.891618e-12,2.220446e-16,-1.110223e-16,1.159928e-17,0,0,0,0,2.224481e-16,-1.114258e-16,1.669369e-16,46.992146,2.225826e-16,1.962824e-16,0,0,0,0,0,0
2.917253,-2.202989,-10.890369,1.891618e-12,0,0,1.891618e-12,2.220446e-16,0,-5.429447e-17,0,0,0,0,2.346097e-16,-1.256508e-17,1.235874e-16,31.969732,1.647832e-16,1.607586e-16,0,0,0,0,0,0
2.964544,-2.202989,-10.866147,1.891618e-12,0,0,1.891618e-12,2.220446e-16,2.220446e-16,-1.790506e-17,0,0,0,0,2.399497e-16,2.041395e-16,1.790506e-17,0,2.387342e-17,1.494666e-16,0,0,0,0,0,0
3.011834,-2.202989,-10.839595,1.891618e-12,0,0,1.891618e-12,-2.220446e-16,2.220446e-16,-1.10299e-17,0,0,0,0,2.223184e-16,-2.223184e-16,2.223184e-16,-43.578106,2.964245e-16,2.567111e-16,0,0,0,0,0,0
3.059125,-2.202989,-10.811042,1.891618e-12,0,0,1.891618e-12,-2.220446e-16,2.220446e-16,-2.538257e-17,0,0,0,0,2.234907e-16,-2.234907e-16,2.234907e-16,-41.73933,2.979876e-16,2.580648e-16,0,0,0,0,0,0
3.106415,-2.202989,-10.780461,1.891618e-12,0,0,1.891618e-12,4.440892e-16,0,-5.304523e-17,0,0,0,0,4.503374e-16,-6.248195e-18,2.282928e-16,38.282085,3.043904e-16,3.023292e-16,0,0,0,0,0,0
3.153705,-2.202989,-10.746636,1.891618e-12,0,0,1.891618e-12,-6.661338e-16,-1.110223e-16,4.850836e-17,0,0,0,0,-1.068153e-16,-6.703408e-16,2.817628e-16,-49.956722,3.756837e-16,4.158866e-16,0,0,0,0,0,0
3.200996,-2.202989,-10.707647,1.891618e-12,0,0,1.891618e-12,2.220446e-16,-1.110223e-16,-1.596538e-17,0,0,0,0,2.228082e-16,-1.117858e-16,1.67297e-16,42.261929,2.230627e-16,1.966908e-16,0,0,0,0,0,0
3.248286,-2.202989,-10.662289,1.891618e-12,0,0,1.891618e-12,0,-1.110223e-16,2.978148e-17,0,0,0,0,7.484281e-18,-1.185066e-16,6.299544e-17,59.106678,8.399391e-17,8.161362e-17,0,0,0,0,0,0
3.295577,-2.202989,-10.606105,1.891618e-12,0,0,1.891618e-12,0,-1.110223e-16,-2.511769e-17,0,0,0,0,5.418205e-18,-1.164405e-16,6.092936e-17,32.827095,8.123914e-17,7.949464e-17,0,0,0,0,0,0
3.342867,-2.202989,-10.576796,1.891618e-12,0,0,1.891618e-12,-1.110223e-16,-3.330669e-16,1.707172e-17,0,0,0,0,-1.097174e-16,-3.343718e-16,1.123272e-16,49.370903,1.497696e-16,1.968146e-16,0,0,0,0,0,0
1.49854,-2.250279,-10.319231,1.891618e-12,0,0,1.891618e-12,0,-1.110223e-16,-6.728374e-17,0,0,0,0,3.171608e-17,-1.427384e-16,8.722723e-17,19.761839,1.16303e-16,1.073049e-16,0,0,0,0,0,0
1.54583,-2.250279,-10.418436,1.891618e-12,0,0,1.891618e-12,2.220446e-16,-1.110223e-16,5.086995e-18,0,0,0,0,2.221223e-16,-1.111e-16,1.666111e-16,45.874817,2.221482e-16,1.95913e-16,0,0,0,0,0,0
1.593121,-2.250279,-10.501409,1.891618e-12,0,0,1.891618e-12,2.220446e-16,-1.110223e-16,1.616927e-17,0,0,0,0,2.228277e-16,-1.118054e-16,1.673166e-16,47.772823,2.230888e-16,1.96713e-16,0,0,0,0,0,0
1.640411,-2.250279,-10.571172,1.891618e-12,0,0,1.891618e-12,2.220446e-16,2.220446e-16,-1.220954e-17,0,0,0,0,2.342541e-16,2.098351e-16,1.220954e-17,0,1.627939e-17,1.486996e-16,0,0,0,0,0,0
1.687701,-2.250279,-10.628212,1.891618e-12,0,0,1.891618e-12,-2.220446e-16,0,9.596613e-18,0,0,0,0,4.13987e-19,-2.224586e-16,1.114363e-16,-47.470142,1.485817e-16,1.484439e-16,0,0,0,0,0,0
1.734992,-2.250279,-10.676093,1.891618e-12,0,0,1.891618e-12,0,-1.110223e-16,3.117625e-17,0,0,0,0,8.155533e-18,-1.191778e-16,6.366668e-17,59.659752,8.488891e-17,8.23052e-17,0,0,0,0,0,0
1.782282,-2.250279,-10.718401,1.891618e-12,0,0,1.891618e-12,0,0,1.63576e-17,0,0,0,0,1.63576e-17,-1.63576e-17,1.63576e-17,90,2.181013e-17,1.888813e-17,0,0,0,0,0,0
1.829573,-2.250279,-10.756319,1.891618e-12,0,0,1.891618e-12,0,2.220446e-16,-3.934796e-17,0,0,0,0,2.288112e-16,-6.766548e-18,1.177889e-16,-35.242458,1.570518e-16,1.548456e-16,0,0,0,0,0,0
1.876863,-2.250279,-10.790634,1.891618e-12,0,0,1.891618e-12,-2.220446e-16,0,-4.690081e-18,0,0,0,0,9.902087e-20,-2.221436e-16,1.111213e-16,-43.790504,1.481618e-16,1.481288e-16,0,0,0,0,0,0
1.924154,-2.250279,-10.823174,1.891618e-12,0,0,1.891618e-12,-2.220446e-16,-1.110223e-16,2.842989e-17,0,0,0,0,-1.041656e-16,-2.289013e-16,6.236784e-17,-58.55957,8.315711e-17,1.32334e-16,0,0,0,0,0,0
1.971444,-2.250279,-10.853693,1.891618e-12,0,0,1.891618e-12,0,-1.110223e-16,-5.522618e-17,0,0,0,0,2.279223e-17,-1.338145e-16,7.830338e-17,22.573721,1.044045e-16,9.769737e-17,0,0,0,0,0,0
2.018735,-2.250279,-10.882077,1.891618e-12,0,0,1.891618e-12,-1.110223e-16,0,1.588934e-17,0,0,0,0,2.229295e-18,-1.132516e-16,5.774045e-17,-52.986538,7.698726e-17,7.625503e-17,0,0,0,0,0,0
2.066025,-2.250279,-10.906442,1.891618e-12,0,0,1.891618e-12,-1.110223e-16,0,-2.38284e-17,0,0,0,0,4.898126e-18,-1.159204e-16,6.040928e-17,-33.384178,8.054571e-17,7.896365e-17,0,0,0,0,0,0
2.113316,-2.250279,-10.92494,1.891618e-12,0,0,1.891618e-12,0,2.220446e-16,-2.786259e-17,0,0,0,0,2.254875e-16,-3.44287e-18,1.144652e-16,-37.955894,1.526202e-16,1.514856e-16,0,0,0,0,0,0
2.160606,-2.250279,-10.936972,1.891618e-12,0,0,1.891618e-12,-1.110223e-16,-4.440892e-16,6.55999e-17,0,0,0,0,-9.856766e-17,-4.565439e-16,1.789881e-16,55.750095,2.386508e-16,2.774066e-16,0,0,0,0,0,0
2.207896,-2.250279,-10.94412,1.891618e-12,0,0,1.891618e-12,-1.110223e-16,0,1.46221e-17,0,0,0,0,1.893497e-18,-1.129158e-16,5.740465e-17,-52.37849,7.653953e-17,7.591623e-17,0,0,0,0,0,0
2.255187,-2.250279,-10.949744,1.891618e-12,0,0,1.891618e-12,-1.110223e-16,4.440892e-16,-3.503338e-17,0,0,0,0,4.462914e-16,-1.132245e-16,2.79758e-16,-41.403053,3.730107e-16,3.415826e-16,0,0,0,0,0,0
2.302477,-2.250279,-10.957221,1.891618e-12,0,0,1.891618e-12,0,-1.110223e-16,-1.466293e-17,0,0,0,0,1.903912e-18,-1.129262e-16,5.741506e-17,37.601807,7.655342e-17,7.592674e-17,0,0,0,0,0,0
2.349768,-2.250279,-10.967612,1.891618e-12,0,0,1.891618e-12,4.440892e-16,0,9.905729e-18,0,0,0,0,4.443101e-16,-2.208446e-19,2.222654e-16,46.277176,2.963539e-16,2.962803e-16,0,0,0,0,0,0
2.397058,-2.250279,-10.980325,1.891618e-12,0,0,1.891618e-12,2.220446e-16,-1.110223e-16,-2.293804e-17,0,0,0,0,2.236169e-16,-1.125946e-16,1.681058e-16,41.078762,2.24141e-16,1.976081e-16,0,0,0,0,0,0
2.444349,-2.250279,-10.991097,1.891618e-12,0,0,1.891618e-12,0,-2.220446e-16,-1.632125e-17,0,0,0,0,1.19327e-18,-2.232379e-16,1.122156e-16,40.818462,1.496208e-16,1.492246e-16,0,0,0,0,0,0
2.491639,-2.250279,-10.996316,1.891618e-12,0,0,1.891618e-12,-1.110223e-16,-2.220446e-16,2.029424e-17,0,0,0,0,-1.074289e-16,-2.25638e-16,5.910452e-17,55.040913,7.880602e-17,1.303217e-16,0,0,0,0,0,0
2.53893,-2.250279,-10.995402,1.891618e-12,0,0,1.891618e-12,2.220446e-16,-1.110223e-16,-3.153095e-17,0,0,0,0,2.250033e-16,-1.13981e-16,1.694922e-16,39.639347,2.259896e-16,1.991808e-16,0,0,0,0,0,0
2.58622,-2.250279,-10.990101,1.891618e-12,0,0,1.891618e-12,2.220446e-16,-1.110223e-16,-2.071565e-17,0,0,0,0,2.233281e-16,-1.123058e-16,1.678169e-16,41.454605,2.237559e-16,1.972805e-16,0,0,0,0,0,0
2.633511,-2.250279,-10.982919,1.891618e-12,0,0,1.891618e-12,-2.220446e-16,0,4.50043e-18,0,0,0,0,9.117786e-20,-2.221358e-16,1.111135e-16,-46.160645,1.481513e-16,1.481209e-16,0,0,0,0,0,0
2.680801,-2.250279,-10.975192,1.891618e-12,0,0,1.891618e-12,2.220446e-16,-1.110223e-16,-4.150555e-17,0,0,0,0,2.27139e-16,-1.161166e-16,1.716278e-16,38.002575,2.288371e-16,2.016044e-16,0,0,0,0,0,0
2.728091,-2.250279,-10.965401,1.891618e-12,0,0,1.891618e-12,0,-2.220446e-16,-3.953381e-17,0,0,0,0,6.828763e-18,-2.288734e-16,1.178511e-16,35.199875,1.571347e-16,1.549087e-16,0,0,0,0,0,0
2.775382,-2.250279,-10.952277,1.891618e-12,0,0,1.891618e-12,2.220446e-16,0,-2.258194e-17,0,0,0,0,2.243179e-16,-2.27331e-18,1.132956e-16,39.251438,1.510608e-16,1.503088e-16,0,0,0,0,0,0
2.822672,-2.250279,-10.936113,1.891618e-12,0,0,1.891618e-12,-1.110223e-16,0,1.042988e-17,0,0,0,0,9.713258e-19,-1.119936e-16,5.648248e-17,-50.320564,7.530997e-17,7.498829e-17,0,0,0,0,0,0
2.869963,-2.250279,-10.917488,1.891618e-12,0,0,1.891618e-12,-1.110223e-16,-1.110223e-16,-4.325851e-17,0,0,0,0,-6.776379e-17,-1.542808e-16,4.325851e-17,0,5.767801e-17,8.929314e-17,0,0,0,0,0,0
2.917253,-2.250279,-10.896493,1.891618e-12,0,0,1.891618e-12,2.220446e-16,0,1.135892e-18,0,0,0,0,2.220504e-16,-5.810619e-21,1.110281e-16,45.293091,1.480375e-16,1.480356e-16,0,0,0,0,0,0
2.964544,-2.250279,-10.872877,1.891618e-12,0,0,1.891618e-12,2.220446e-16,2.220446e-16,-7.429271e-18,0,0,0,0,2.294739e-16,2.146153e-16,7.429271e-18,0,9.905695e-18,1.482781e-16,0,0,0,0,0,0
3.011834,-2.250279,-10.846397,1.891618e-12,0,0,1.891618e-12,-1.110223e-16,-1.110223e-16,2.836122e-17,0,0,0,0,-8.266109e-17,-1.393835e-16,2.836122e-17,90,3.781496e-17,8.093627e-17,0,0,0,0,0,0
3.059125,-2.250279,-10.817536,1.891618e-12,0,0,1.891618e-12,-1.110223e-16,-1.110223e-16,1.24863e-17,0,0,0,0,-9.8536e-17,-1.235086e-16,1.24863e-17,90,1.664839e-17,7.540608e-17,0,0,0,0,0,0
3.106415,-2.250279,-10.786888,1.891618e-12,0,0,1.891618e-12,0,-1.110223e-16,-5.187586e-17,0,0,0,0,2.046643e-17,-1.314887e-16,7.597758e-17,23.469425,1.013034e-16,9.521733e-17,0,0,0,0,0,0
3.153705,-2.250279,-10.753084,1.891618e-12,0,0,1.891618e-12,2.220446e-16,-1.110223e-16,-1.205201e-18,0,0,0,0,2.22049e-16,-1.110267e-16,1.665378e-16,44.792679,2.220504e-16,1.958299e-16,0,0,0,0,0,0
3.200996,-2.250279,-10.714262,1.891618e-12,0,0,1.891618e-12,4.440892e-16,-1.110223e-16,2.697884e-17,0,0,0,0,4.453973e-16,-1.123304e-16,2.788639e-16,47.775898,3.718185e-16,3.406063e-16,0,0,0,0,0,0
3.248286,-2.250279,-10.669455,1.891618e-12,0,0,1.891618e-12,2.220446e-16,-2.220446e-16,2.463452e-18,0,0,0,0,2.220583e-16,-2.220583e-16,2.220583e-16,45.317818,2.960777e-16,2.564108e-16,0,0,0,0,0,0
3.295577,-2.250279,-10.613848,1.891618e-12,0,0,1.891618e-12,4.440892e-16,-1.110223e-16,-2.148546e-17,0,0,0,0,4.449196e-16,-1.118526e-16,2.783861e-16,42.786793,3.711815e-16,3.400849e-16,0,0,0,0,0,0
3.342867,-2.250279,-10.583873,1.891618e-12,0,0,1.891618e-12,0,2.220446e-16,-1.394537e-17,0,0,0,0,2.22917e-16,-8.724025e-19,1.118947e-16,-41.420322,1.491929e-16,1.48903e-16,0,0,0,0,0,0
1.49854,-2.29757,-10.320877,1.891618e-12,0,0,1.891618e-12,-1.110223e-16,0,-5.201987e-18,0,0,0,0,2.432081e-19,-1.112655e-16,5.575436e-17,-42.323204,7.433915e-17,7.425821e-17,0,0,0,0,0,0
1.54583,-2.29757,-10.419364,1.891618e-12,0,0,1.891618e-12,0,0,-3.843185e-17,0,0,0,0,3.843185e-17,-3.843185e-17,3.843185e-17,0,5.124247e-17,4.437728e-17,0,0,0,0,0,0
1.593121,-2.29757,-10.502564,1.891618e-12,0,0,1.891618e-12,2.220446e-16,2.220446e-16,4.085193e-19,0,0,0,0,2.224531e-16,2.216361e-16,4.085193e-19,90,5.446924e-19,1.480305e-16,0,0,0,0,0,0
1.640411,-2.29757,-10.573138,1.891618e-12,0,0,1.891618e-12,0,0,8.044034e-18,0,0,0,0,8.044034e-18,-8.044034e-18,8.044034e-18,90,1.072538e-17,9.28845e-18,0,0,0,0,0,0
1.687701,-2.29757,-10.631912,1.891618e-12,0,0,1.891618e-12,0,2.220446e-16,-1.835174e-18,0,0,0,0,2.220598e-16,-1.516647e-20,1.110375e-16,-44.526501,1.4805e-16,1.480449e-16,0,0,0,0,0,0
1.734992,-2.29757,-10.681579,1.891618e-12,0,0,1.891618e-12,0,-1.110223e-16,1.373955e-17,0,0,0,0,1.675062e-18,-1.126974e-16,5.718621e-17,51.950935,7.624828e-17,7.569611e-17,0,0,0,0,0,0
1.782282,-2.29757,-10.724286,1.891618e-12,0,0,1.891618e-12,2.220446e-16,2.220446e-16,3.124699e-17,0,0,0,0,2.532916e-16,1.907976e-16,3.124699e-17,90,4.166265e-17,1.523635e-16,0,0,0,0,0,0
1.829573,-2.29757,-10.76113,1.891618e-12,0,0,1.891618e-12,0,0,2.677279e-18,0,0,0,0,2.677279e-18,-2.677279e-18,2.677279e-18,90,3.569705e-18,3.091455e-18,0,0,0,0,0,0
1.876863,-2.29757,-10.793365,1.891618e-12,0,0,1.891618e-12,-4.440892e-16,0,-2.974096e-17,0,0,0,0,1.982919e-18,-4.460721e-16,2.240275e-16,-41.185566,2.987034e-16,2.980446e-16,0,0,0,0,0,0
1.924154,-2.29757,-10.823834,1.891618e-12,0,0,1.891618e-12,2.220446e-16,2.220446e-16,2.206301e-17,0,0,0,0,2.441076e-16,1.999816e-16,2.206301e-17,90,2.941735e-17,1.50206e-16,0,0,0,0,0,0
1.971444,-2.29757,-10.852992,1.891618e-12,0,0,1.891618e-12,0,2.220446e-16,-4.875966e-17,0,0,0,0,2.322801e-16,-1.023551e-17,1.212578e-16,-33.144749,1.616771e-16,1.583755e-16,0,0,0,0,0,0
2.018735,-2.29757,-10.881167,1.891618e-12,0,0,1.891618e-12,0,-5.551115e-16,-7.352875e-18,0,0,0,0,9.737736e-20,-5.552089e-16,2.776531e-16,44.241253,3.702042e-16,3.701717e-16,0,0,0,0,0,0
2.066025,-2.29757,-10.906237,1.891618e-12,0,0,1.891618e-12,0,-1.110223e-16,3.985694e-17,0,0,0,0,1.282672e-17,-1.23849e-16,6.833786e-17,62.839153,9.111715e-17,8.715677e-17,0,0,0,0,0,0
2.113316,-2.29757,-10.92594,1.891618e-12,0,0,1.891618e-12,2.220446e-16,0,-1.477075e-17,0,0,0,0,2.230229e-16,-9.782635e-19,1.120006e-16,41.210846,1.493341e-16,1.490091e-16,0,0,0,0,0,0
2.160606,-2.29757,-10.939262,1.891618e-12,0,0,1.891618e-12,0,2.220446e-16,-3.61809e-17,0,0,0,0,2.277914e-16,-5.746738e-18,1.16769e-16,-35.974903,1.556921e-16,1.538123e-16,0,0,0,0,0,0
2.207896,-2.29757,-10.947299,1.891618e-12,0,0,1.891618e-12,2.220446e-16,0,2.259314e-17,0,0,0,0,2.243202e-16,-2.275542e-18,1.132978e-16,50.751339,1.510638e-16,1.50311e-16,0,0,0,0,0,0
2.255187,-2.29757,-10.952492,1.891618e-12,0,0,1.891618e-12,2.220446e-16,2.220446e-16,-4.77932e-17,0,0,0,0,2.698378e-16,1.742514e-16,4.77932e-17,0,6.372426e-17,1.579822e-16,0,0,0,0,0,0
2.302477,-2.29757,-10.958604,1.891618e-12,0,0,1.891618e-12,0,2.220446e-16,-1.520628e-17,0,0,0,0,2.230811e-16,-1.036532e-18,1.120588e-16,-41.100479,1.494118e-16,1.490675e-16,0,0,0,0,0,0
2.349768,-2.29757,-10.967491,1.891618e-12,0,0,1.891618e-12,0,2.220446e-16,6.927707e-19,0,0,0,0,2.220468e-16,-2.161397e-21,1.110245e-16,-45.178757,1.480326e-16,1.480319e-16,0,0,0,0,0,0
2.397058,-2.29757,-10.979486,1.891618e-12,0,0,1.891618e-12,2.220446e-16,-1.110223e-16,1.918158e-17,0,0,0,0,2.231456e-16,-1.121233e-16,1.676345e-16,48.285229,2.235127e-16,1.970735e-16,0,0,0,0,0,0
2.444349,-2.29757,-10.990815,1.891618e-12,0,0,1.891618e-12,-1.110223e-16,2.220446e-16,-2.95375e-17,0,0,0,0,2.246438e-16,-1.136215e-16,1.691327e-16,-39.971115,2.255102e-16,1.98773e-16,0,0,0,0,0,0
2.491639,-2.29757,-10.997594,1.891618e-12,0,0,1.891618e-12,0,0,-2.368312e-17,0,0,0,0,2.368312e-17,-2.368312e-17,2.368312e-17,0,3.157749e-17,2.734691e-17,0,0,0,0,0,0
2.53893,-2.29757,-10.99833,1.891618e-12,0,0,1.891618e-12,0,2.220446e-16,2.856225e-17,0,0,0,0,2.256598e-16,-3.615185e-18,1.146375e-16,-52.213692,1.5285e-16,1.516593e-16,0,0,0,0,0,0
2.58622,-2.29757,-10.994656,1.891618e-12,0,0,1.891618e-12,2.220446e-16,-2.220446e-16,-1.180366e-17,0,0,0,0,2.223581e-16,-2.223581e-16,2.223581e-16,43.478539,2.964775e-16,2.56757e-16,0,0,0,0,0,0
2.633511,-2.29757,-10.98888,1.891618e-12,0,0,1.891618e-12,4.440892e-16,0,-3.285851e-17,0,0,0,0,4.465073e-16,-2.41806e-18,2.244627e-16,40.791187,2.992836e-16,2.984808e-16,0,0,0,0,0,0
2.680801,-2.29757,-10.982204,1.891618e-12,0,0,1.891618e-12,2.220446e-16,0,2.004144e-18,0,0,0,0,2.220627e-16,-1.808765e-20,1.110404e-16,45.517086,1.480539e-16,1.480478e-16,0,0,0,0,0,0
2.728091,-2.29757,-10.973034,1.891618e-12,0,0,1.891618e-12,0,2.220446e-16,-7.341394e-18,0,0,0,0,2.222871e-16,-2.424616e-19,1.112648e-16,-43.108402,1.48353e-16,1.482723e-16,0,0,0,0,0,0
2.775382,-2.29757,-10.96003,1.891618e-12,0,0,1.891618e-12,2.220446e-16,0,-1.351466e-17,0,0,0,0,2.228641e-16,-8.1954e-19,1.118418e-16,41.529789,1.491225e-16,1.4885e-16,0,0,0,0,0,0
2.822672,-2.29757,-10.943806,1.891618e-12,0,0,1.891618e-12,2.220446e-16,2.220446e-16,-4.449071e-17,0,0,0,0,2.665353e-16,1.775539e-16,4.449071e-17,0,5.932095e-17,1.566909e-16,0,0,0,0,0,0
2.869963,-2.29757,-10.925233,1.891618e-12,0,0,1.891618e-12,2.220446e-16,2.220446e-16,2.349523e-17,0,0,0,0,2.455398e-16,1.985494e-16,2.349523e-17,90,3.132697e-17,1.504953e-16,0,0,0,0,0,0
2.917253,-2.29757,-10.904621,1.891618e-12,0,0,1.891618e-12,0,2.220446e-16,-2.498917e-18,0,0,0,0,2.220727e-16,-2.811956e-20,1.110504e-16,-44.355293,1.480672e-16,1.480579e-16,0,0,0,0,0,0
2.964544,-2.29757,-10.881431,1.891618e-12,0,0,1.891618e-12,0,2.220446e-16,-5.246592e-17,0,0,0,0,2.338174e-16,-1.177275e-17,1.227951e-16,-32.35297,1.637267e-16,1.59947e-16,0,0,0,0,0,0
3.011834,-2.29757,-10.854857,1.891618e-12,0,0,1.891618e-12,0,4.440892e-16,-1.380654e-18,0,0,0,0,4.440935e-16,-4.292349e-21,2.220489e-16,-44.821873,2.960652e-16,2.960638e-16,0,0,0,0,0,0
3.059125,-2.29757,-10.825271,1.891618e-12,0,0,1.891618e-12,0,2.220446e-16,-1.886633e-17,0,0,0,0,2.236362e-16,-1.591596e-18,1.126139e-16,-40.177849,1.501519e-16,1.496241e-16,0,0,0,0,0,0
3.106415,-2.29757,-10.793845,1.891618e-12,0,0,1.891618e-12,0,-2.220446e-16,-9.497158e-18,0,0,0,0,4.054664e-19,-2.224501e-16,1.114278e-16,42.555332,1.485704e-16,1.484354e-16,0,0,0,0,0,0
3.153705,-2.29757,-10.759819,1.891618e-12,0,0,1.891618e-12,-2.220446e-16,-1.110223e-16,4.76649e-17,0,0,0,0,-9.336631e-17,-2.397006e-16,7.316714e-17,-65.325592,9.755619e-17,1.395129e-16,0,0,0,0,0,0
3.200996,-2.29757,-10.721229,1.891618e-12,0,0,1.891618e-12,-2.220446e-16,0,-1.008207e-17,0,0,0,0,4.568425e-19,-2.225014e-16,1.114791e-16,-42.405567,1.486389e-16,1.484868e-16,0,0,0,0,0,0
3.248286,-2.29757,-10.677044,1.891618e-12,0,0,1.891618e-12,-2.220446e-16,-1.110223e-16,2.335546e-17,0,0,0,0,-1.063092e-16,-2.267577e-16,6.022429e-17,-56.409084,8.029905e-17,1.310035e-16,0,0,0,0,0,0
3.295577,-2.29757,-10.622369,1.891618e-12,0,0,1.891618e-12,4.440892e-16,2.220446e-16,8.769999e-18,0,0,0,0,4.444351e-16,2.216988e-16,1.113681e-16,47.258297,1.484909e-16,2.565949e-16,0,0,0,0,0,0
3.342867,-2.29757,-10.593698,1.891618e-12,0,0,1.891618e-12,0,-1.110223e-16,-8.096637e-17,0,0,0,0,4.265728e-17,-1.536796e-16,9.816843e-17,17.217413,1.308912e-16,1.192432e-16,0,0,0,0,0,0
1.49854,-2.34486,-10.324929,1.891618e-12,0,0,1.891618e-12,0,0,-5.708121e-17,0,0,0,0,5.708121e-17,-5.708121e-17,5.708121e-17,0,7.610828e-17,6.59117e-17,0,0,0,0,0,0
1.54583,-2.34486,-10.421583,1.891618e-12,0,0,1.891618e-12,2.220446e-16,0,3.151519e-17,0,0,0,0,2.26431e-16,-4.386358e-18,1.154087e-16,52.923656,1.538782e-16,1.524371e-16,0,0,0,0,0,0
1.593121,-2.34486,-10.503335,1.891618e-12,0,0,1.891618e-12,0,0,-8.97759e-18,0,0,0,0,8.97759e-18,-8.97759e-18,8.97759e-18,0,1.197012e-17,1.036643e-17,0,0,0,0,0,0
1.640411,-2.34486,-10.573764,1.891618e-12,0,0,1.891618e-12,2.220446e-16,-4.440892e-16,-4.174663e-18,0,0,0,0,2.220708e-16,-4.441154e-16,3.330931e-16,44.640945,4.441241e-16,3.916795e-16,0,0,0,0,0,0
1.687701,-2.34486,-10.633393,1.891618e-12,0,0,1.891618e-12,-2.220446e-16,2.220446e-16,1.127477e-17,0,0,0,0,2.223307e-16,-2.223307e-16,2.223307e-16,-46.453407,2.964409e-16,2.567253e-16,0,0,0,0,0,0
1.734992,-2.34486,-10.68394,1.891618e-12,0,0,1.891618e-12,0,-1.110223e-16,-3.024882e-17,0,0,0,0,7.706562e-18,-1.187289e-16,6.321772e-17,30.706699,8.429029e-17,8.184247e-17,0,0,0,0,0,0
1.782282,-2.34486,-10.726764,1.891618e-12,0,0,1.891618e-12,2.220446e-16,-1.110223e-16,-1.94596e-17,0,0,0,0,2.231777e-16,-1.121554e-16,1.676665e-16,41.667576,2.235554e-16,1.971099e-16,0,0,0,0,0,0
1.829573,-2.34486,-10.762563,1.891618e-12,0,0,1.891618e-12,2.220446e-16,-1.110223e-16,2.864528e-18,0,0,0,0,2.220692e-16,-1.110469e-16,1.665581e-16,45.492722,2.220775e-16,1.958529e-16,0,0,0,0,0,0
1.876863,-2.34486,-10.793083,1.891618e-12,0,0,1.891618e-12,0,0,-1.471771e-17,0,0,0,0,1.471771e-17,-1.471771e-17,1.471771e-17,0,1.962361e-17,1.699455e-17,0,0,0,0,0,0
1.924154,-2.34486,-10.822042,1.891618e-12,0,0,1.891618e-12,2.220446e-16,-1.110223e-16,2.406046e-17,0,0,0,0,2.237737e-16,-1.127514e-16,1.682626e-16,49.110554,2.243501e-16,1.977859e-16,0,0,0,0,0,0
1.971444,-2.34486,-10.850779,1.891618e-12,0,0,1.891618e-12,0,0,-5.911744e-18,0,0,0,0,5.911744e-18,-5.911744e-18,5.911744e-18,0,7.882325e-18,6.826294e-18,0,0,0,0,0,0
2.018735,-2.34486,-10.879425,1.891618e-12,0,0,1.891618e-12,0,0,1.527637e-18,0,0,0,0,1.527637e-18,-1.527637e-18,1.527637e-18,90,2.036849e-18,1.763963e-18,0,0,0,0,0,0
2.066025,-2.34486,-10.90552,1.891618e-12,0,0,1.891618e-12,0,-1.110223e-16,5.283381e-18,0,0,0,0,2.508612e-19,-1.112732e-16,5.576201e-17,47.71843,7.434935e-17,7.426587e-17,0,0,0,0,0,0
2.113316,-2.34486,-10.926747,1.891618e-12,0,0,1.891618e-12,2.220446e-16,-2.220446e-16,-2.025577e-17,0,0,0,0,2.229666e-16,-2.229666e-16,2.229666e-16,42.393841,2.972888e-16,2.574596e-16,0,0,0,0,0,0
2.160606,-2.34486,-10.941823,1.891618e-12,0,0,1.891618e-12,0,0,5.130558e-18,0,0,0,0,5.130558e-18,-5.130558e-18,5.130558e-18,90,6.840744e-18,5.924258e-18,0,0,0,0,0,0
2.207896,-2.34486,-10.951361,1.891618e-12,0,0,1.891618e-12,0,4.440892e-16,2.805796e-17,0,0,0,0,4.458549e-16,-1.765707e-18,2.238103e-16,-48.600914,2.984138e-16,2.978269e-16,0,0,0,0,0,0
2.255187,-2.34486,-10.957286,1.891618e-12,0,0,1.891618e-12,-1.110223e-16,2.220446e-16,1.737636e-17,0,0,0,0,2.229487e-16,-1.119264e-16,1.674375e-16,-47.97839,2.2325e-16,1.968502e-16,0,0,0,0,0,0
2.302477,-2.34486,-10.962806,1.891618e-12,0,0,1.891618e-12,2.220446e-16,2.220446e-16,3.313544e-17,0,0,0,0,2.551801e-16,1.889092e-16,3.313544e-17,90,4.418059e-17,1.528946e-16,0,0,0,0,0,0
2.349768,-2.34486,-10.97023,1.891618e-12,0,0,1.891618e-12,2.220446e-16,-1.110223e-16,3.568542e-17,0,0,0,0,2.258251e-16,-1.148028e-16,1.703139e-16,51.047325,2.270853e-16,2.001133e-16,0,0,0,0,0,0
2.397058,-2.34486,-10.980964,1.891618e-12,0,0,1.891618e-12,-2.220446e-16,2.220446e-16,1.570104e-18,0,0,0,0,2.220502e-16,-2.220502e-16,2.220502e-16,-45.202568,2.960669e-16,2.564014e-16,0,0,0,0,0,0
2.444349,-2.34486,-10.991846,1.891618e-12,0,0,1.891618e-12,-1.110223e-16,2.220446e-16,-2.681973e-17,0,0,0,0,2.241904e-16,-1.131681e-16,1.686793e-16,-40.425617,2.249057e-16,1.982586e-16,0,0,0,0,0,0
2.491639,-2.34486,-10.999171,1.891618e-12,0,0,1.891618e-12,-2.220446e-16,-1.110223e-16,-6.275344e-17,0,0,0,0,-8.275111e-17,-2.503158e-16,8.378234e-17,-20.747849,1.117098e-16,1.472592e-16,0,0,0,0,0,0
2.53893,-2.34486,-11.001179,1.891618e-12,0,0,1.891618e-12,4.440892e-16,2.220446e-16,-4.148326e-17,0,0,0,0,4.515861e-16,2.145477e-16,1.185192e-16,34.755951,1.580257e-16,2.608311e-16,0,0,0,0,0,0
2.58622,-2.34486,-10.998952,1.891618e-12,0,0,1.891618e-12,-2.220446e-16,2.220446e-16,-2.063201e-17,0,0,0,0,2.230011e-16,-2.230011e-16,2.230011e-16,-42.345707,2.973348e-16,2.574995e-16,0,0,0,0,0,0
2.633511,-2.34486,-10.994626,1.891618e-12,0,0,1.891618e-12,-1.110223e-16,-1.110223e-16,-3.271861e-17,0,0,0,0,-7.83037e-17,-1.437409e-16,3.271861e-17,0,4.362481e-17,8.30996e-17,0,0,0,0,0,0
2.680801,-2.34486,-10.989114,1.891618e-12,0,0,1.891618e-12,-2.220446e-16,0,5.632708e-18,0,0,0,0,1.427957e-19,-2.221874e-16,1.111651e-16,-46.452202,1.482201e-16,1.481726e-16,0,0,0,0,0,0
2.728091,-2.34486,-10.980592,1.891618e-12,0,0,1.891618e-12,2.220446e-16,0,-3.860546e-17,0,0,0,0,2.285652e-16,-6.520597e-18,1.175429e-16,35.413025,1.567239e-16,1.545962e-16,0,0,0,0,0,0
2.775382,-2.34486,-10.967762,1.891618e-12,0,0,1.891618e-12,-1.110223e-16,0,2.965066e-17,0,0,0,0,7.42254e-18,-1.184448e-16,6.293369e-17,-59.054203,8.391159e-17,8.155008e-17,0,0,0,0,0,0
2.822672,-2.34486,-10.951461,1.891618e-12,0,0,1.891618e-12,0,0,-5.29518e-18,0,0,0,0,5.29518e-18,-5.29518e-18,5.29518e-18,0,7.06024e-18,6.114347e-18,0,0,0,0,0,0
2.869963,-2.34486,-10.93294,1.891618e-12,0,0,1.891618e-12,0,2.220446e-16,-4.212898e-17,0,0,0,0,2.297691e-16,-7.724499e-18,1.187468e-16,-34.61002,1.583291e-16,1.558181e-16,0,0,0,0,0,0
2.917253,-2.34486,-10.912402,1.891618e-12,0,0,1.891618e-12,0,2.220446e-16,-5.946696e-18,0,0,0,0,2.222037e-16,-1.591476e-19,1.111815e-16,-43.466995,1.482419e-16,1.481889e-16,0,0,0,0,0,0
2.964544,-2.34486,-10.88897,1.891618e-12,0,0,1.891618e-12,0,-2.220446e-16,5.508977e-17,0,0,0,0,1.291653e-17,-2.349611e-16,1.239388e-16,58.195408,1.652518e-16,1.611189e-16,0,0,0,0,0,0
3.011834,-2.34486,-10.861598,1.891618e-12,0,0,1.891618e-12,2.220446e-16,-2.220446e-16,-1.069595e-17,0,0,0,0,2.223021e-16,-2.223021e-16,2.223021e-16,43.62109,2.964028e-16,2.566923e-16,0,0,0,0,0,0
3.059125,-2.34486,-10.830838,1.891618e-12,0,0,1.891618e-12,2.220446e-16,-1.110223e-16,9.082871e-18,0,0,0,0,2.222921e-16,-1.112698e-16,1.66781e-16,46.560932,2.223746e-16,1.961056e-16,0,0,0,0,0,0
3.106415,-2.34486,-10.798317,1.891618e-12,0,0,1.891618e-12,2.220446e-16,0,-2.851684e-17,0,0,0,0,2.256485e-16,-3.60388e-18,1.146262e-16,37.797298,1.528349e-16,1.516479e-16,0,0,0,0,0,0
3.153705,-2.34486,-10.763772,1.891618e-12,0,0,1.891618e-12,2.220446e-16,-1.110223e-16,4.651624e-17,0,0,0,0,2.284191e-16,-1.173968e-16,1.729079e-16,52.803074,2.305439e-16,2.030577e-16,0,0,0,0,0,0
3.200996,-2.34486,-10.725256,1.891618e-12,0,0,1.891618e-12,0,2.220446e-16,2.955327e-17,0,0,0,0,2.259107e-16,-3.866111e-18,1.148884e-16,-52.453018,1.531845e-16,1.519122e-16,0,0,0,0,0,0
3.248286,-2.34486,-10.681547,1.891618e-12,0,0,1.891618e-12,2.220446e-16,2.220446e-16,-7.129769e-17,0,0,0,0,2.933423e-16,1.507469e-16,7.129769e-17,0,9.506359e-17,1.69383e-16,0,0,0,0,0,0
3.295577,-2.34486,-10.628137,1.891618e-12,0,0,1.891618e-12,-2.220446e-16,-2.220446e-16,2.791372e-18,0,0,0,0,-2.192532e-16,-2.24836e-16,2.791372e-18,90,3.721829e-18,1.480648e-16,0,0,0,0,0,0
3.342867,-2.34486,-10.597747,1.891618e-12,0,0,1.891618e-12,2.220446e-16,2.220446e-16,5.115389e-17,0,0,0,0,2.731985e-16,1.708907e-16,5.115389e-17,90,6.82052e-17,1.593793e-16,0,0,0,0,0,0
1.451249,-2.392151,-10.247221,1.891618e-12,0,0,1.891618e-12,2.220446e-16,-2.220446e-16,-1.774405e-17,0,0,0,0,2.227525e-16,-2.227525e-16,2.227525e-16,42.715542,2.970033e-16,2.572124e-16,0,0,0,0,0,0
1.49854,-2.392151,-10.332886,1.891618e-12,0,0,1.891618e-12,-1.110223e-16,0,-9.194684e-17,0,0,0,0,5.189326e-17,-1.629156e-16,1.074044e-16,-15.560341,1.432059e-16,1.294237e-16,0,0,0,0,0,0
1.54583,-2.392151,-10.426381,1.891618e-12,0,0,1.891618e-12,-1.110223e-16,-1.110223e-16,1.299431e-17,0,0,0,0,-9.802799e-17,-1.240166e-16,1.299431e-17,90,1.732575e-17,7.552044e-17,0,0,0,0,0,0
1.593121,-2.392151,-10.505676,1.891618e-12,0,0,1.891618e-12,0,-2.220446e-16,-1.803325e-17,0,0,0,0,1.455027e-18,-2.234996e-16,1.124773e-16,40.387039,1.499698e-16,1.494871e-16,0,0,0,0,0,0
1.640411,-2.392151,-10.573951,1.891618e-12,0,0,1.891618e-12,2.220446e-16,0,-5.160926e-17,0,0,0,0,2.334538e-16,-1.140918e-17,1.224315e-16,32.534203,1.63242e-16,1.595749e-16,0,0,0,0,0,0
1.687701,-2.392151,-10.633578,1.891618e-12,0,0,1.891618e-12,-2.220446e-16,2.220446e-16,-9.791449e-19,0,0,0,0,2.220468e-16,-2.220468e-16,2.220468e-16,-44.873672,2.960623e-16,2.563975e-16,0,0,0,0,0,0
1.734992,-2.392151,-10.684357,1.891618e-12,0,0,1.891618e-12,0,2.220446e-16,1.978746e-17,0,0,0,0,2.237942e-16,-1.74957e-18,1.127719e-16,-50.052845,1.503625e-16,1.497827e-16,0,0,0,0,0,0
1.782282,-2.392151,-10.72732,1.891618e-12,0,0,1.891618e-12,-2.220446e-16,2.220446e-16,1.135159e-17,0,0,0,0,2.223346e-16,-2.223346e-16,2.223346e-16,-46.463291,2.964461e-16,2.567299e-16,0,0,0,0,0,0
1.829573,-2.392151,-10.7627,1.891618e-12,0,0,1.891618e-12,2.220446e-16,-1.110223e-16,-2.974094e-17,0,0,0,0,2.246795e-16,-1.136572e-16,1.691683e-16,39.937195,2.255577e-16,1.988134e-16,0,0,0,0,0,0
1.876863,-2.392151,-10.792651,1.891618e-12,0,0,1.891618e-12,0,2.220446e-16,1.014694e-17,0,0,0,0,2.225073e-16,-4.627279e-19,1.11485e-16,-47.611034,1.486467e-16,1.484927e-16,0,0,0,0,0,0
1.924154,-2.392151,-10.821414,1.891618e-12,0,0,1.891618e-12,2.220446e-16,0,1.627679e-17,0,0,0,0,2.232314e-16,-1.186813e-18,1.122091e-16,49.170311,1.496122e-16,1.492181e-16,0,0,0,0,0,0
1.971444,-2.392151,-10.850461,1.891618e-12,0,0,1.891618e-12,-2.220446e-16,2.220446e-16,-7.463422e-18,0,0,0,0,2.2217e-16,-2.2217e-16,2.2217e-16,-44.037441,2.962267e-16,2.565398e-16,0,0,0,0,0,0
2.018735,-2.392151,-10.879552,1.891618e-12,0,0,1.891618e-12,2.220446e-16,2.220446e-16,-1.210885e-17,0,0,0,0,2.341534e-16,2.099358e-16,1.210885e-17,0,1.614513e-17,1.486886e-16,0,0,0,0,0,0
2.066025,-2.392151,-10.906035,1.891618e-12,0,0,1.891618e-12,0,0,2.059364e-17,0,0,0,0,2.059364e-17,-2.059364e-17,2.059364e-17,90,2.745819e-17,2.377949e-17,0,0,0,0,0,0
2.113316,-2.392151,-10.928136,1.891618e-12,0,0,1.891618e-12,2.220446e-16,-1.110223e-16,-5.811175e-17,0,0,0,0,2.318924e-16,-1.208702e-16,1.763813e-16,35.381798,2.351751e-16,2.070025e-16,0,0,0,0,0,0
2.160606,-2.392151,-10.944582,1.891618e-12,0,0,1.891618e-12,-3.330669e-16,0,-1.221137e-17,0,0,0,0,4.4711e-19,-3.33514e-16,1.669806e-16,-42.903095,2.226408e-16,2.224919e-16,0,0,0,0,0,0
2.207896,-2.392151,-10.955759,1.891618e-12,0,0,1.891618e-12,-1.110223e-16,0,2.909928e-17,0,0,0,0,7.16465e-18,-1.18187e-16,6.26758e-17,-58.831902,8.356773e-17,8.128484e-17,0,0,0,0,0,0
2.255187,-2.392151,-10.962948,1.891618e-12,0,0,1.891618e-12,0,0,1.149263e-17,0,0,0,0,1.149263e-17,-1.149263e-17,1.149263e-17,90,1.532351e-17,1.327055e-17,0,0,0,0,0,0
2.302477,-2.392151,-10.968669,1.891618e-12,0,0,1.891618e-12,2.220446e-16,0,5.367837e-17,0,0,0,0,2.343403e-16,-1.229566e-17,1.23318e-16,57.901691,1.644239e-16,1.604825e-16,0,0,0,0,0,0
2.349768,-2.392151,-10.975006,1.891618e-12,0,0,1.891618e-12,2.220446e-16,2.220446e-16,-5.632473e-18,0,0,0,0,2.276771e-16,2.164121e-16,5.632473e-18,0,7.509964e-18,1.481725e-16,0,0,0,0,0,0
2.397058,-2.392151,-10.984521,1.891618e-12,0,0,1.891618e-12,2.220446e-16,-1.110223e-16,-1.768012e-17,0,0,0,0,2.229805e-16,-1.119582e-16,1.674693e-16,41.969929,2.232924e-16,1.968862e-16,0,0,0,0,0,0
2.444349,-2.392151,-10.99461,1.891618e-12,0,0,1.891618e-12,2.220446e-16,-2.220446e-16,8.741591e-18,0,0,0,0,2.222166e-16,-2.222166e-16,2.222166e-16,46.127247,2.962888e-16,2.565936e-16,0,0,0,0,0,0
2.491639,-2.392151,-11.00172,1.891618e-12,0,0,1.891618e-12,-1.110223e-16,-2.220446e-16,9.360669e-18,0,0,0,0,-1.102386e-16,-2.228283e-16,5.629485e-17,49.785782,7.50598e-17,1.286524e-16,0,0,0,0,0,0
2.53893,-2.392151,-11.004121,1.891618e-12,0,0,1.891618e-12,0,2.220446e-16,-3.114139e-18,0,0,0,0,2.220883e-16,-4.366671e-20,1.11066e-16,-44.196648,1.48088e-16,1.480734e-16,0,0,0,0,0,0
2.58622,-2.392151,-11.002537,1.891618e-12,0,0,1.891618e-12,-2.220446e-16,0,3.274591e-17,0,0,0,0,4.72849e-18,-2.267731e-16,1.157508e-16,-53.216682,1.543344e-16,1.527826e-16,0,0,0,0,0,0
2.633511,-2.392151,-10.998756,1.891618e-12,0,0,1.891618e-12,2.220446e-16,0,-9.007592e-17,0,0,0,0,2.539895e-16,-3.194491e-17,1.429672e-16,25.473242,1.90623e-16,1.809172e-16,0,0,0,0,0,0
2.680801,-2.392151,-10.993752,1.891618e-12,0,0,1.891618e-12,-2.220446e-16,-1.110223e-16,-7.524081e-18,0,0,0,0,-1.105147e-16,-2.225522e-16,5.601874e-17,-41.140533,7.469166e-17,1.284916e-16,0,0,0,0,0,0
2.728091,-2.392151,-10.985508,1.891618e-12,0,0,1.891618e-12,-1.110223e-16,0,-2.525278e-18,0,0,0,0,5.740949e-20,-1.110797e-16,5.556856e-17,-43.697666,7.409141e-17,7.407228e-17,0,0,0,0,0,0
2.775382,-2.392151,-10.972929,1.891618e-12,0,0,1.891618e-12,-2.220446e-16,0,3.167635e-17,0,0,0,0,4.43047e-18,-2.264751e-16,1.154528e-16,-52.962128,1.53937e-16,1.524817e-16,0,0,0,0,0,0
2.822672,-2.392151,-10.956729,1.891618e-12,0,0,1.891618e-12,2.220446e-16,0,2.954193e-17,0,0,0,0,2.259078e-16,-3.863194e-18,1.148855e-16,52.450283,1.531807e-16,1.519093e-16,0,0,0,0,0,0
2.869963,-2.392151,-10.938054,1.891618e-12,0,0,1.891618e-12,2.220446e-16,2.220446e-16,3.589092e-17,0,0,0,0,2.579355e-16,1.861537e-16,3.589092e-17,90,4.785456e-17,1.537217e-16,0,0,0,0,0,0
2.917253,-2.392151,-10.917298,1.891618e-12,0,0,1.891618e-12,0,0,-4.957967e-17,0,0,0,0,4.957967e-17,-4.957967e-17,4.957967e-17,0,6.610623e-17,5.724967e-17,0,0,0,0,0,0
2.964544,-2.392151,-10.893668,1.891618e-12,0,0,1.891618e-12,0,-1.110223e-16,-4.004181e-17,0,0,0,0,1.29347e-17,-1.23957e-16,6.844585e-17,27.097996,9.126113e-17,8.726967e-17,0,0,0,0,0,0
3.011834,-2.392151,-10.865707,1.891618e-12,0,0,1.891618e-12,0,0,6.962483e-18,0,0,0,0,6.962483e-18,-6.962483e-18,6.962483e-18,90,9.28331e-18,8.039582e-18,0,0,0,0,0,0
3.059125,-2.392151,-10.83383,1.891618e-12,0,0,1.891618e-12,0,0,1.088091e-17,0,0,0,0,1.088091e-17,-1.088091e-17,1.088091e-17,90,1.450788e-17,1.25642e-17,0,0,0,0,0,0
3.106415,-2.392151,-10.80014,1.891618e-12,0,0,1.891618e-12,-2.220446e-16,-5.551115e-16,7.175667e-17,0,0,0,0,-2.07243e-16,-5.699131e-16,1.813351e-16,56.655228,2.417801e-16,3.330934e-16,0,0,0,0,0,0
3.153705,-2.392151,-10.765253,1.891618e-12,0,0,1.891618e-12,0,0,3.813418e-18,0,0,0,0,3.813418e-18,-3.813418e-18,3.813418e-18,90,5.084558e-18,4.403357e-18,0,0,0,0,0,0
3.200996,-2.392151,-10.726935,1.891618e-12,0,0,1.891618e-12,4.440892e-16,0,-2.034206e-17,0,0,0,0,4.45019e-16,-9.298469e-19,2.229745e-16,42.382801,2.972993e-16,2.969898e-16,0,0,0,0,0,0
3.248286,-2.392151,-10.68342,1.891618e-12,0,0,1.891618e-12,-2.220446e-16,-1.110223e-16,-4.61225e-17,0,0,0,0,-9.436162e-17,-2.387053e-16,7.217183e-17,-25.138927,9.622911e-17,1.3882e-16,0,0,0,0,0,0
3.295577,-2.392151,-10.633294,1.891618e-12,0,0,1.891618e-12,-2.220446e-16,2.220446e-16,-1.59734e-17,0,0,0,0,2.226184e-16,-2.226184e-16,2.226184e-16,-42.942677,2.968245e-16,2.570576e-16,0,0,0,0,0,0
3.342867,-2.392151,-10.58002,1.891618e-12,0,0,1.891618e-12,-2.220446e-16,2.220446e-16,1.452332e-17,0,0,0,0,2.225191e-16,-2.225191e-16,2.225191e-16,-46.871113,2.966921e-16,2.569429e-16,0,0,0,0,0,0
3.390158,-2.392151,-10.553493,1.891618e-12,0,0,1.891618e-12,-1.110223e-16,-1.110223e-16,3.1169e-17,0,0,0,0,-7.98533e-17,-1.421913e-16,3.1169e-17,90,4.155867e-17,8.230154e-17,0,0,0,0,0,0
1.451249,-2.439441,-10.234375,1.891618e-12,0,0,1.891618e-12,0,2.220446e-16,-3.847981e-17,0,0,0,0,2.28524e-16,-6.479388e-18,1.175017e-16,-35.441963,1.566689e-16,1.545544e-16,0,0,0,0,0,0
1.49854,-2.439441,-10.345084,1.891618e-12,0,0,1.891618e-12,2.220446e-16,2.220446e-16,1.62127e-17,0,0,0,0,2.382573e-16,2.058319e-16,1.62127e-17,90,2.161693e-17,1.492088e-16,0,0,0,0,0,0
1.54583,-2.439441,-10.434943,1.891618e-12,0,0,1.891618e-12,-1.110223e-16,4.440892e-16,-1.921395e-17,0,0,0,0,4.447534e-16,-1.116866e-16,2.7822e-16,-43.019993,3.7096e-16,3.399036e-16,0,0,0,0,0,0
1.593121,-2.439441,-10.511021,1.891618e-12,0,0,1.891618e-12,-1.110223e-16,-1.110223e-16,-1.853904e-17,0,0,0,0,-9.248326e-17,-1.295613e-16,1.853904e-17,0,2.471872e-17,7.704844e-17,0,0,0,0,0,0
1.640411,-2.439441,-10.576855,1.891618e-12,0,0,1.891618e-12,-3.330669e-16,0,-4.822811e-17,0,0,0,0,6.842847e-18,-3.399097e-16,1.733763e-16,-36.924488,2.311684e-16,2.289215e-16,0,0,0,0,0,0
1.687701,-2.439441,-10.634849,1.891618e-12,0,0,1.891618e-12,2.220446e-16,2.220446e-16,4.052651e-17,0,0,0,0,2.625711e-16,1.815181e-16,4.052651e-17,90,5.403535e-17,1.552503e-16,0,0,0,0,0,0
1.734992,-2.439441,-10.685564,1.891618e-12,0,0,1.891618e-12,2.220446e-16,2.220446e-16,5.759747e-17,0,0,0,0,2.796421e-16,1.644471e-16,5.759747e-17,90,7.679662e-17,1.62284e-16,0,0,0,0,0,0
1.782282,-2.439441,-10.728974,1.891618e-12,0,0,1.891618e-12,-4.440892e-16,-2.220446e-16,-3.848962e-18,0,0,0,0,-2.219779e-16,-4.441559e-16,1.11089e-16,-44.007221,1.481187e-16,2.564335e-16,0,0,0,0,0,0
1.829573,-2.439441,-10.765113,1.891618e-12,0,0,1.891618e-12,-2.220446e-16,0,-5.046834e-18,0,0,0,0,1.146499e-19,-2.221592e-16,1.11137e-16,-43.698624,1.481826e-16,1.481444e-16,0,0,0,0,0,0
1.876863,-2.439441,-10.795917,1.891618e-12,0,0,1.891618e-12,2.220446e-16,2.220446e-16,-2.398734e-17,0,0,0,0,2.460319e-16,1.980573e-16,2.398734e-17,0,3.198312e-17,1.505988e-16,0,0,0,0,0,0
1.924154,-2.439441,-10.82523,1.891618e-12,0,0,1.891618e-12,2.220446e-16,2.220446e-16,3.524387e-18,0,0,0,0,2.25569e-16,2.185202e-16,3.524387e-18,90,4.699182e-18,1.480857e-16,0,0,0,0,0,0
1.971444,-2.439441,-10.854492,1.891618e-12,0,0,1.891618e-12,2.220446e-16,0,4.909019e-17,0,0,0,0,2.324134e-16,-1.03688e-17,1.213911e-16,56.926674,1.618548e-16,1.585116e-16,0,0,0,0,0,0
2.018735,-2.439441,-10.883231,1.891618e-12,0,0,1.891618e-12,2.220446e-16,-1.110223e-16,2.563704e-17,0,0,0,0,2.240064e-16,-1.129841e-16,1.684952e-16,49.375854,2.246603e-16,1.980499e-16,0,0,0,0,0,0
2.066025,-2.439441,-10.908972,1.891618e-12,0,0,1.891618e-12,2.220446e-16,0,2.496211e-17,0,0,0,0,2.248162e-16,-2.771627e-18,1.137939e-16,51.335793,1.517252e-16,1.508098e-16,0,0,0,0,0,0
2.113316,-2.439441,-10.930794,1.891618e-12,0,0,1.891618e-12,0,0,-1.491587e-17,0,0,0,0,1.491587e-17,-1.491587e-17,1.491587e-17,0,1.988782e-17,1.722336e-17,0,0,0,0,0,0
2.160606,-2.439441,-10.947732,1.891618e-12,0,0,1.891618e-12,0,-1.110223e-16,4.522866e-18,0,0,0,0,1.839493e-19,-1.112063e-16,5.56951e-17,47.328991,7.426013e-17,7.41989e-17,0,0,0,0,0,0
2.207896,-2.439441,-10.959914,1.891618e-12,0,0,1.891618e-12,-3.330669e-16,0,1.084941e-17,0,0,0,0,3.530372e-19,-3.334199e-16,1.668865e-16,-46.863735,2.225153e-16,2.223977e-16,0,0,0,0,0,0
2.255187,-2.439441,-10.968025,1.891618e-12,0,0,1.891618e-12,2.220446e-16,0,-3.942043e-17,0,0,0,0,2.288354e-16,-6.790778e-18,1.178131e-16,35.225849,1.570841e-16,1.548702e-16,0,0,0,0,0,0
2.302477,-2.439441,-10.974339,1.891618e-12,0,0,1.891618e-12,2.220446e-16,2.220446e-16,6.55736e-17,0,0,0,0,2.876182e-16,1.56471e-16,6.55736e-17,90,8.743147e-17,1.662709e-16,0,0,0,0,0,0
2.349768,-2.439441,-10.980392,1.891618e-12,0,0,1.891618e-12,-2.220446e-16,0,-3.169045e-17,0,0,0,0,4.434339e-18,-2.26479e-16,1.154566e-16,-37.034508,1.539422e-16,1.524856e-16,0,0,0,0,0,0
2.397058,-2.439441,-10.98901,1.891618e-12,0,0,1.891618e-12,-1.110223e-16,-1.110223e-16,6.237905e-18,0,0,0,0,-1.047844e-16,-1.172602e-16,6.237905e-18,90,8.317207e-18,7.436452e-17,0,0,0,0,0,0
2.444349,-2.439441,-10.998141,1.891618e-12,0,0,1.891618e-12,0,-2.220446e-16,1.915457e-17,0,0,0,0,1.640243e-18,-2.236849e-16,1.126625e-16,49.894409,1.502167e-16,1.49673e-16,0,0,0,0,0,0
2.491639,-2.439441,-11.004269,1.891618e-12,0,0,1.891618e-12,0,4.440892e-16,9.344054e-18,0,0,0,0,4.442857e-16,-1.965207e-19,2.222411e-16,-46.204845,2.963215e-16,2.96256e-16,0,0,0,0,0,0
2.53893,-2.439441,-11.006008,1.891618e-12,0,0,1.891618e-12,0,2.220446e-16,-2.847559e-18,0,0,0,0,2.220811e-16,-3.651185e-20,1.110588e-16,-44.265385,1.480784e-16,1.480663e-16,0,0,0,0,0,0
2.58622,-2.439441,-11.004187,1.891618e-12,0,0,1.891618e-12,2.220446e-16,-2.220446e-16,-5.2686e-17,0,0,0,0,2.282096e-16,-2.282096e-16,2.282096e-16,38.325947,3.042795e-16,2.635137e-16,0,0,0,0,0,0
2.633511,-2.439441,-11.000083,1.891618e-12,0,0,1.891618e-12,-2.220446e-16,2.220446e-16,1.604836e-17,0,0,0,0,2.226238e-16,-2.226238e-16,2.226238e-16,-47.066944,2.968317e-16,2.570638e-16,0,0,0,0,0,0
2.680801,-2.439441,-10.994507,1.891618e-12,0,0,1.891618e-12,2.220446e-16,0,3.064652e-17,0,0,0,0,2.261968e-16,-4.152178e-18,1.151745e-16,52.715797,1.53566e-16,1.522008e-16,0,0,0,0,0,0
2.728091,-2.439441,-10.985835,1.891618e-12,0,0,1.891618e-12,2.220446e-16,2.220446e-16,-1.21633e-17,0,0,0,0,2.342079e-16,2.098813e-16,1.21633e-17,0,1.621773e-17,1.486945e-16,0,0,0,0,0,0
2.775382,-2.439441,-10.974034,1.891618e-12,0,0,1.891618e-12,-1.110223e-16,2.220446e-16,-4.907062e-18,0,0,0,0,2.221169e-16,-1.110946e-16,1.666057e-16,-44.156109,2.22141e-16,1.959069e-16,0,0,0,0,0,0
2.822672,-2.439441,-10.95925,1.891618e-12,0,0,1.891618e-12,-1.110223e-16,-2.220446e-16,3.760348e-17,0,0,0,0,-9.948489e-17,-2.33582e-16,6.704856e-17,62.056938,8.939808e-17,1.353513e-16,0,0,0,0,0,0
2.869963,-2.439441,-10.940988,1.891618e-12,0,0,1.891618e-12,2.220446e-16,-2.220446e-16,-5.4082e-19,0,0,0,0,2.220453e-16,-2.220453e-16,2.220453e-16,44.930225,2.960604e-16,2.563958e-16,0,0,0,0,0,0
2.917253,-2.439441,-10.92024,1.891618e-12,0,0,1.891618e-12,-2.220446e-16,0,-2.963757e-17,0,0,0,0,3.887823e-18,-2.259324e-16,1.149101e-16,-37.526676,1.532135e-16,1.519341e-16,0,0,0,0,0,0
2.964544,-2.439441,-10.896398,1.891618e-12,0,0,1.891618e-12,2.220446e-16,-1.110223e-16,-1.158117e-17,0,0,0,0,2.224468e-16,-1.114245e-16,1.669357e-16,43.010952,2.225809e-16,1.96281e-16,0,0,0,0,0,0
3.011834,-2.439441,-10.868651,1.891618e-12,0,0,1.891618e-12,-2.220446e-16,0,-2.362911e-17,0,0,0,0,2.486669e-18,-2.245313e-16,1.13509e-16,-38.992447,1.513453e-16,1.505232e-16,0,0,0,0,0,0
3.059125,-2.439441,-10.837422,1.891618e-12,0,0,1.891618e-12,-2.220446e-16,-2.220446e-16,2.702084e-18,0,0,0,0,-2.193425e-16,-2.247467e-16,2.702084e-18,90,3.602779e-18,1.480626e-16,0,0,0,0,0,0
3.106415,-2.439441,-10.803714,1.891618e-12,0,0,1.891618e-12,4.440892e-16,0,2.180321e-17,0,0,0,0,4.451571e-16,-1.067893e-18,2.231125e-16,47.804031,2.974833e-16,2.97128e-16,0,0,0,0,0,0
3.153705,-2.439441,-10.7683,1.891618e-12,0,0,1.891618e-12,2.220446e-16,0,3.571559e-17,0,0,0,0,2.27648e-16,-5.603403e-18,1.166257e-16,53.916424,1.555009e-16,1.536672e-16,0,0,0,0,0,0
3.200996,-2.439441,-10.729959,1.891618e-12,0,0,1.891618e-12,0,2.220446e-16,-1.070158e-17,0,0,0,0,2.225592e-16,-5.145765e-19,1.115369e-16,-42.247101,1.487158e-16,1.485446e-16,0,0,0,0,0,0
3.248286,-2.439441,-10.68702,1.891618e-12,0,0,1.891618e-12,0,0,5.09416e-17,0,0,0,0,5.09416e-17,-5.09416e-17,5.09416e-17,90,6.792213e-17,5.882229e-17,0,0,0,0,0,0
3.295577,-2.439441,-10.638829,1.891618e-12,0,0,1.891618e-12,0,2.220446e-16,-2.362252e-17,0,0,0,0,2.245299e-16,-2.485296e-18,1.135076e-16,-38.994076,1.513435e-16,1.505219e-16,0,0,0,0,0,0
3.342867,-2.439441,-10.579418,1.891618e-12,0,0,1.891618e-12,2.220446e-16,2.220446e-16,-8.469422e-17,0,0,0,0,3.067388e-16,1.373504e-16,8.469422e-17,0,1.129256e-16,1.774174e-16,0,0,0,0,0,0
1.451249,-2.486732,-10.250495,1.891618e-12,0,0,1.891618e-12,-3.330669e-16,4.440892e-16,-1.048684e-16,0,0,0,0,4.579913e-16,-3.46969e-16,4.024802e-16,-37.44849,5.366402e-16,4.662152e-16,0,0,0,0,0,0
1.49854,-2.486732,-10.360139,1.891618e-12,0,0,1.891618e-12,2.220446e-16,2.220446e-16,-1.116963e-17,0,0,0,0,2.332142e-16,2.10875e-16,1.116963e-17,0,1.489284e-17,1.485905e-16,0,0,0,0,0,0
1.54583,-2.486732,-10.446667,1.891618e-12,0,0,1.891618e-12,0,0,-4.801742e-17,0,0,0,0,4.801742e-17,-4.801742e-17,4.801742e-17,0,6.402324e-17,5.544575e-17,0,0,0,0,0,0
1.593121,-2.486732,-10.519903,1.891618e-12,0,0,1.891618e-12,-1.110223e-16,0,-6.519388e-17,0,0,0,0,3.011436e-17,-1.411367e-16,8.562552e-17,-20.206833,1.141673e-16,1.055708e-16,0,0,0,0,0,0
1.640411,-2.486732,-10.583462,1.891618e-12,0,0,1.891618e-12,-1.110223e-16,-1.110223e-16,-4.90147e-17,0,0,0,0,-6.20076e-17,-1.60037e-16,4.90147e-17,0,6.535293e-17,9.317433e-17,0,0,0,0,0,0
1.687701,-2.486732,-10.639695,1.891618e-12,0,0,1.891618e-12,0,-1.110223e-16,-1.612748e-17,0,0,0,0,2.29528e-18,-1.133176e-16,5.780643e-17,36.900002,7.707524e-17,7.632165e-17,0,0,0,0,0,0
1.734992,-2.486732,-10.689791,1.891618e-12,0,0,1.891618e-12,0,2.220446e-16,9.690707e-18,0,0,0,0,2.224667e-16,-4.221297e-19,1.114444e-16,-47.494244,1.485926e-16,1.484521e-16,0,0,0,0,0,0
1.782282,-2.486732,-10.733597,1.891618e-12,0,0,1.891618e-12,2.220446e-16,2.220446e-16,3.244694e-17,0,0,0,0,2.544916e-16,1.895977e-16,3.244694e-17,90,4.326258e-17,1.526976e-16,0,0,0,0,0,0
1.829573,-2.486732,-10.77071,1.891618e-12,0,0,1.891618e-12,2.220446e-16,2.220446e-16,1.058962e-17,0,0,0,0,2.326342e-16,2.11455e-16,1.058962e-17,90,1.41195e-17,1.485339e-16,0,0,0,0,0,0
1.876863,-2.486732,-10.802505,1.891618e-12,0,0,1.891618e-12,2.220446e-16,-1.110223e-16,2.977648e-17,0,0,0,0,2.246857e-16,-1.136634e-16,1.691746e-16,50.068729,2.255661e-16,1.988205e-16,0,0,0,0,0,0
1.924154,-2.486732,-10.83259,1.891618e-12,0,0,1.891618e-12,2.220446e-16,2.220446e-16,-1.76108e-17,0,0,0,0,2.396554e-16,2.044338e-16,1.76108e-17,0,2.348107e-17,1.4942e-16,0,0,0,0,0,0
1.971444,-2.486732,-10.86195,1.891618e-12,0,0,1.891618e-12,-2.220446e-16,0,-4.991252e-17,0,0,0,0,1.070367e-17,-2.327483e-16,1.21726e-16,-32.896324,1.623013e-16,1.588537e-16,0,0,0,0,0,0
2.018735,-2.486732,-10.890031,1.891618e-12,0,0,1.891618e-12,0,4.440892e-16,3.27687e-17,0,0,0,0,4.464941e-16,-2.404932e-18,2.244495e-16,-49.197475,2.992661e-16,2.984676e-16,0,0,0,0,0,0
2.066025,-2.486732,-10.914487,1.891618e-12,0,0,1.891618e-12,-1.110223e-16,2.220446e-16,-2.391855e-17,0,0,0,0,2.237535e-16,-1.127312e-16,1.682424e-16,-40.913364,2.243231e-16,1.97763e-16,0,0,0,0,0,0
2.113316,-2.486732,-10.934913,1.891618e-12,0,0,1.891618e-12,0,-2.220446e-16,6.161352e-18,0,0,0,0,1.708354e-19,-2.222154e-16,1.111931e-16,46.58823,1.482575e-16,1.482006e-16,0,0,0,0,0,0
2.160606,-2.486732,-10.951193,1.891618e-12,0,0,1.891618e-12,2.220446e-16,2.220446e-16,-2.8713e-17,0,0,0,0,2.507576e-16,1.933316e-16,2.8713e-17,0,3.828401e-17,1.516972e-16,0,0,0,0,0,0
2.207896,-2.486732,-10.963515,1.891618e-12,0,0,1.891618e-12,-1.110223e-16,0,-7.591301e-18,0,0,0,0,5.166612e-19,-1.11539e-16,5.602781e-17,-41.106476,7.470375e-17,7.453213e-17,0,0,0,0,0,0
2.255187,-2.486732,-10.972091,1.891618e-12,0,0,1.891618e-12,2.220446e-16,2.220446e-16,2.562838e-17,0,0,0,0,2.47673e-16,1.964162e-16,2.562838e-17,90,3.417117e-17,1.509588e-16,0,0,0,0,0,0
2.302477,-2.486732,-10.978957,1.891618e-12,0,0,1.891618e-12,2.220446e-16,-1.110223e-16,2.673794e-17,0,0,0,0,2.241774e-16,-1.131551e-16,1.686663e-16,49.560665,2.248884e-16,1.982439e-16,0,0,0,0,0,0
2.349768,-2.486732,-10.984915,1.891618e-12,0,0,1.891618e-12,2.220446e-16,0,1.040058e-17,0,0,0,0,2.225307e-16,-4.860998e-19,1.115084e-16,47.67593,1.486779e-16,1.485161e-16,0,0,0,0,0,0
2.397058,-2.486732,-10.992639,1.891618e-12,0,0,1.891618e-12,2.220446e-16,0,1.618594e-17,0,0,0,0,2.232183e-16,-1.17367e-18,1.12196e-16,49.147358,1.495946e-16,1.492049e-16,0,0,0,0,0,0
2.444349,-2.486732,-11.00048,1.891618e-12,0,0,1.891618e-12,0,0,-1.994441e-17,0,0,0,0,1.994441e-17,-1.994441e-17,1.994441e-17,0,2.659254e-17,2.302982e-17,0,0,0,0,0,0
2.491639,-2.486732,-11.005236,1.891618e-12,0,0,1.891618e-12,2.220446e-16,0,-1.779627e-17,0,0,0,0,2.234619e-16,-1.417277e-18,1.124396e-16,40.446632,1.499194e-16,1.494492e-16,0,0,0,0,0,0
2.53893,-2.486732,-11.005833,1.891618e-12,0,0,1.891618e-12,2.220446e-16,-1.110223e-16,7.165294e-18,0,0,0,0,2.221987e-16,-1.111764e-16,1.666875e-16,46.23185,2.2225e-16,1.959996e-16,0,0,0,0,0,0
2.58622,-2.486732,-11.003488,1.891618e-12,0,0,1.891618e-12,2.220446e-16,2.220446e-16,9.359921e-18,0,0,0,0,2.314045e-16,2.126847e-16,9.359921e-18,90,1.247989e-17,1.484238e-16,0,0,0,0,0,0
2.633511,-2.486732,-10.999303,1.891618e-12,0,0,1.891618e-12,0,2.220446e-16,7.097513e-18,0,0,0,0,2.222712e-16,-2.266361e-19,1.112489e-16,-46.828934,1.483319e-16,1.482564e-16,0,0,0,0,0,0
2.680801,-2.486732,-10.993958,1.891618e-12,0,0,1.891618e-12,-1.110223e-16,-1.110223e-16,4.116149e-17,0,0,0,0,-6.986081e-17,-1.521838e-16,4.116149e-17,90,5.488199e-17,8.79615e-17,0,0,0,0,0,0
2.728091,-2.486732,-10.985879,1.891618e-12,0,0,1.891618e-12,-1.110223e-16,2.220446e-16,-3.247832e-17,0,0,0,0,2.251821e-16,-1.141598e-16,1.69671e-16,-39.482182,2.262279e-16,1.993837e-16,0,0,0,0,0,0
2.775382,-2.486732,-10.974679,1.891618e-12,0,0,1.891618e-12,-1.110223e-16,2.220446e-16,-4.432934e-17,0,0,0,0,2.278436e-16,-1.168213e-16,1.723325e-16,-37.547073,2.297766e-16,2.024044e-16,0,0,0,0,0,0
2.822672,-2.486732,-10.960562,1.891618e-12,0,0,1.891618e-12,2.220446e-16,-1.110223e-16,-1.292129e-17,0,0,0,0,2.225451e-16,-1.115228e-16,1.67034e-16,42.781662,2.22712e-16,1.963925e-16,0,0,0,0,0,0
2.869963,-2.486732,-10.943581,1.891618e-12,0,0,1.891618e-12,2.220446e-16,2.220446e-16,-2.554438e-17,0,0,0,0,2.47589e-16,1.965002e-16,2.554438e-17,0,3.405918e-17,1.509398e-16,0,0,0,0,0,0
2.917253,-2.486732,-10.924439,1.891618e-12,0,0,1.891618e-12,-2.220446e-16,-2.220446e-16,-2.249332e-17,0,0,0,0,-1.995513e-16,-2.445379e-16,2.249332e-17,0,2.999109e-17,1.502911e-16,0,0,0,0,0,0
2.964544,-2.486732,-10.902008,1.891618e-12,0,0,1.891618e-12,2.220446e-16,-1.110223e-16,1.701633e-17,0,0,0,0,2.229117e-16,-1.118894e-16,1.674006e-16,47.917107,2.232008e-16,1.968082e-16,0,0,0,0,0,0
3.011834,-2.486732,-10.875049,1.891618e-12,0,0,1.891618e-12,4.440892e-16,2.220446e-16,6.149287e-17,0,0,0,0,4.599816e-16,2.061523e-16,1.269146e-16,59.490562,1.692195e-16,2.660456e-16,0,0,0,0,0,0
3.059125,-2.486732,-10.844014,1.891618e-12,0,0,1.891618e-12,-2.220446e-16,2.220446e-16,2.097837e-17,0,0,0,0,2.230334e-16,-2.230334e-16,2.230334e-16,-47.698589,2.973779e-16,2.575368e-16,0,0,0,0,0,0
3.106415,-2.486732,-10.810327,1.891618e-12,0,0,1.891618e-12,-4.440892e-16,-1.110223e-16,-1.526462e-17,0,0,0,0,-1.103242e-16,-4.447873e-16,1.672316e-16,-42.381424,2.229754e-16,2.674459e-16,0,0,0,0,0,0
3.153705,-2.486732,-10.774878,1.891618e-12,0,0,1.891618e-12,-2.220446e-16,-2.220446e-16,4.201724e-17,0,0,0,0,-1.800274e-16,-2.640619e-16,4.201724e-17,90,5.602299e-17,1.557778e-16,0,0,0,0,0,0
3.200996,-2.486732,-10.736789,1.891618e-12,0,0,1.891618e-12,0,-1.110223e-16,1.062111e-17,0,0,0,0,1.00695e-18,-1.120293e-16,5.65181e-17,50.415829,7.535747e-17,7.502407e-17,0,0,0,0,0,0
3.248286,-2.486732,-10.694599,1.891618e-12,0,0,1.891618e-12,2.220446e-16,2.220446e-16,-6.544923e-17,0,0,0,0,2.874938e-16,1.565954e-16,6.544923e-17,0,8.726564e-17,1.662055e-16,0,0,0,0,0,0
3.295577,-2.486732,-10.644619,1.891618e-12,0,0,1.891618e-12,2.220446e-16,4.440892e-16,-2.45384e-16,0,0,0,0,6.023981e-16,6.373574e-17,2.693312e-16,-12.172022,3.591082e-16,3.821294e-16,0,0,0,0,0,0
1.49854,-2.534022,-10.374477,1.891618e-12,0,0,1.891618e-12,0,-3.330669e-16,1.301795e-16,0,0,0,0,4.484318e-17,-3.779101e-16,2.113766e-16,64.007401,2.818355e-16,2.681406e-16,0,0,0,0,0,0
1.54583,-2.534022,-10.461033,1.891618e-12,0,0,1.891618e-12,2.220446e-16,2.220446e-16,2.392027e-17,0,0,0,0,2.459649e-16,1.981243e-16,2.392027e-17,90,3.189369e-17,1.505846e-16,0,0,0,0,0,0
1.593121,-2.534022,-10.531927,1.891618e-12,0,0,1.891618e-12,0,0,-1.002623e-17,0,0,0,0,1.002623e-17,-1.002623e-17,1.002623e-17,0,1.33683e-17,1.157729e-17,0,0,0,0,0,0
1.640411,-2.534022,-10.59316,1.891618e-12,0,0,1.891618e-12,0,2.220446e-16,-4.241955e-17,0,0,0,0,2.298725e-16,-7.827896e-18,1.188502e-16,-34.544537,1.584669e-16,1.559231e-16,0,0,0,0,0,0
1.687701,-2.534022,-10.647481,1.891618e-12,0,0,1.891618e-12,-2.220446e-16,0,2.643043e-17,0,0,0,0,3.102715e-18,-2.251473e-16,1.14125e-16,-51.695408,1.521667e-16,1.511431e-16,0,0,0,0,0,0
1.734992,-2.534022,-10.697297,1.891618e-12,0,0,1.891618e-12,2.220446e-16,-1.110223e-16,1.547135e-17,0,0,0,0,2.227617e-16,-1.117394e-16,1.672506e-16,47.653839,2.230008e-16,1.966381e-16,0,0,0,0,0,0
1.782282,-2.534022,-10.742001,1.891618e-12,0,0,1.891618e-12,0,-1.110223e-16,-1.39527e-17,0,0,0,0,1.726649e-18,-1.12749e-16,5.72378e-17,37.945503,7.631707e-17,7.574808e-17,0,0,0,0,0,0
1.829573,-2.534022,-10.780456,1.891618e-12,0,0,1.891618e-12,0,-4.440892e-16,-8.078712e-17,0,0,0,0,1.42399e-17,-4.583291e-16,2.362845e-16,35.003475,3.15046e-16,3.104083e-16,0,0,0,0,0,0
1.876863,-2.534022,-10.813435,1.891618e-12,0,0,1.891618e-12,0,-1.110223e-16,-2.891869e-17,0,0,0,0,7.081008e-18,-1.181033e-16,6.259216e-17,31.241308,8.345621e-17,8.119886e-17,0,0,0,0,0,0
1.924154,-2.534022,-10.844178,1.891618e-12,0,0,1.891618e-12,-1.110223e-16,-1.110223e-16,3.044831e-18,0,0,0,0,-1.079775e-16,-1.140671e-16,3.044831e-18,90,4.059775e-18,7.409833e-17,0,0,0,0,0,0
1.971444,-2.534022,-10.873094,1.891618e-12,0,0,1.891618e-12,-1.110223e-16,-1.110223e-16,6.01214e-18,0,0,0,0,-1.050102e-16,-1.170344e-16,6.01214e-18,90,8.016187e-18,7.433973e-17,0,0,0,0,0,0
2.018735,-2.534022,-10.899526,1.891618e-12,0,0,1.891618e-12,2.220446e-16,2.220446e-16,5.717239e-18,0,0,0,0,2.277618e-16,2.163274e-16,5.717239e-18,90,7.622986e-18,1.481769e-16,0,0,0,0,0,0
2.066025,-2.534022,-10.921279,1.891618e-12,0,0,1.891618e-12,-1.110223e-16,2.220446e-16,4.11433e-17,0,0,0,0,2.270517e-16,-1.160294e-16,1.715406e-16,-51.938725,2.287207e-16,2.015054e-16,0,0,0,0,0,0
2.113316,-2.534022,-10.938981,1.891618e-12,0,0,1.891618e-12,2.220446e-16,2.220446e-16,8.64225e-18,0,0,0,0,2.306869e-16,2.134024e-16,8.64225e-18,90,1.1523e-17,1.483657e-16,0,0,0,0,0,0
2.160606,-2.534022,-10.953695,1.891618e-12,0,0,1.891618e-12,0,-1.110223e-16,-3.87423e-19,0,0,0,0,1.351934e-21,-1.110237e-16,5.55125e-17,44.800064,7.401667e-17,7.401622e-17,0,0,0,0,0,0
2.207896,-2.534022,-10.966066,1.891618e-12,0,0,1.891618e-12,2.220446e-16,-1.110223e-16,-2.70195e-17,0,0,0,0,2.242223e-16,-1.132e-16,1.687111e-16,40.392128,2.249482e-16,1.982948e-16,0,0,0,0,0,0
2.255187,-2.534022,-10.975689,1.891618e-12,0,0,1.891618e-12,0,0,1.624396e-17,0,0,0,0,1.624396e-17,-1.624396e-17,1.624396e-17,90,2.165861e-17,1.875691e-17,0,0,0,0,0,0
2.302477,-2.534022,-10.983443,1.891618e-12,0,0,1.891618e-12,-1.110223e-16,0,-4.371582e-17,0,0,0,0,1.51469e-17,-1.261692e-16,7.065806e-17,-25.889532,9.421074e-17,8.958961e-17,0,0,0,0,0,0
2.349768,-2.534022,-10.989175,1.891618e-12,0,0,1.891618e-12,2.220446e-16,-1.110223e-16,-6.86902e-19,0,0,0,0,2.22046e-16,-1.110237e-16,1.665349e-16,44.881836,2.220465e-16,1.958265e-16,0,0,0,0,0,0
2.397058,-2.534022,-10.995564,1.891618e-12,0,0,1.891618e-12,2.220446e-16,2.220446e-16,-2.516675e-17,0,0,0,0,2.472114e-16,1.968779e-16,2.516675e-17,0,3.355567e-17,1.508552e-16,0,0,0,0,0,0
2.444349,-2.534022,-11.001468,1.891618e-12,0,0,1.891618e-12,0,0,2.733153e-18,0,0,0,0,2.733153e-18,-2.733153e-18,2.733153e-18,90,3.644205e-18,3.155974e-18,0,0,0,0,0,0
2.491639,-2.534022,-11.004427,1.891618e-12,0,0,1.891618e-12,2.220446e-16,0,4.140174e-17,0,0,0,0,2.295131e-16,-7.468438e-18,1.184907e-16,55.22559,1.579877e-16,1.555579e-16,0,0,0,0,0,0
2.53893,-2.534022,-11.003302,1.891618e-12,0,0,1.891618e-12,-2.220446e-16,0,9.287227e-18,0,0,0,0,3.877699e-19,-2.224324e-16,1.114101e-16,-47.390884,1.485468e-16,1.484177e-16,0,0,0,0,0,0
2.58622,-2.534022,-10.99968,1.891618e-12,0,0,1.891618e-12,-4.440892e-16,2.220446e-16,-2.718126e-17,0,0,0,0,2.231519e-16,-4.451965e-16,3.341742e-16,-42.667244,4.455656e-16,3.929055e-16,0,0,0,0,0,0
2.633511,-2.534022,-10.995145,1.891618e-12,0,0,1.891618e-12,2.220446e-16,-1.110223e-16,1.564068e-18,0,0,0,0,2.220519e-16,-1.110296e-16,1.665408e-16,45.269051,2.220544e-16,1.958333e-16,0,0,0,0,0,0
2.680801,-2.534022,-10.990496,1.891618e-12,0,0,1.891618e-12,0,-2.220446e-16,4.131262e-17,0,0,0,0,7.43733e-18,-2.294819e-16,1.184596e-16,55.205395,1.579462e-16,1.555264e-16,0,0,0,0,0,0
2.728091,-2.534022,-10.984234,1.891618e-12,0,0,1.891618e-12,0,-1.110223e-16,-6.323809e-18,0,0,0,0,3.590418e-19,-1.113813e-16,5.587019e-17,41.750454,7.449359e-17,7.43742e-17,0,0,0,0,0,0
2.775382,-2.534022,-10.975208,1.891618e-12,0,0,1.891618e-12,-1.110223e-16,-2.220446e-16,1.11961e-17,0,0,0,0,-1.099045e-16,-2.231624e-16,5.662897e-17,50.70153,7.55053e-17,1.288477e-16,0,0,0,0,0,0
2.822672,-2.534022,-10.963668,1.891618e-12,0,0,1.891618e-12,0,0,2.123719e-17,0,0,0,0,2.123719e-17,-2.123719e-17,2.123719e-17,90,2.831625e-17,2.452259e-17,0,0,0,0,0,0
2.869963,-2.534022,-10.950179,1.891618e-12,0,0,1.891618e-12,2.220446e-16,2.220446e-16,7.827946e-18,0,0,0,0,2.298725e-16,2.142167e-16,7.827946e-18,90,1.043726e-17,1.483055e-16,0,0,0,0,0,0
2.917253,-2.534022,-10.933361,1.891618e-12,0,0,1.891618e-12,2.220446e-16,-1.110223e-16,-1.157453e-17,0,0,0,0,2.224464e-16,-1.11424e-16,1.669352e-16,43.012089,2.225803e-16,1.962805e-16,0,0,0,0,0,0
2.964544,-2.534022,-10.91231,1.891618e-12,0,0,1.891618e-12,-2.220446e-16,-3.330669e-16,6.459393e-17,0,0,0,0,-1.923861e-16,-3.627254e-16,8.516962e-17,69.662338,1.135595e-16,2.095485e-16,0,0,0,0,0,0
3.011834,-2.534022,-10.887162,1.891618e-12,0,0,1.891618e-12,2.220446e-16,2.220446e-16,-1.133163e-17,0,0,0,0,2.333762e-16,2.10713e-16,1.133163e-17,0,1.510884e-17,1.486069e-16,0,0,0,0,0,0
3.059125,-2.534022,-10.857195,1.891618e-12,0,0,1.891618e-12,2.220446e-16,-3.330669e-16,-8.614989e-17,0,0,0,0,2.351071e-16,-3.461295e-16,2.906183e-16,36.378151,3.874911e-16,3.376115e-16,0,0,0,0,0,0
3.106415,-2.534022,-10.824596,1.891618e-12,0,0,1.891618e-12,2.220446e-16,-2.220446e-16,-2.592145e-17,0,0,0,0,2.235525e-16,-2.235525e-16,2.235525e-16,41.670719,2.9807e-16,2.581362e-16,0,0,0,0,0,0
3.153705,-2.534022,-10.790659,1.891618e-12,0,0,1.891618e-12,2.220446e-16,0,-2.45233e-17,0,0,0,0,2.247208e-16,-2.676175e-18,1.136985e-16,38.772079,1.51598e-16,1.507138e-16,0,0,0,0,0,0
3.200996,-2.534022,-10.754032,1.891618e-12,0,0,1.891618e-12,2.220446e-16,4.440892e-16,7.430331e-17,0,0,0,0,4.666593e-16,1.994745e-16,1.335924e-16,-61.8965,1.781232e-16,2.703696e-16,0,0,0,0,0,0
3.248286,-2.534022,-10.710806,1.891618e-12,0,0,1.891618e-12,0,-3.330669e-16,6.579444e-17,0,0,0,0,1.252603e-17,-3.455929e-16,1.790595e-16,55.779053,2.38746e-16,2.346821e-16,0,0,0,0,0,0
1.54583,-2.581313,-10.476002,1.891618e-12,0,0,1.891618e-12,2.220446e-16,0,9.05324e-17,0,0,0,0,2.542775e-16,-3.223295e-17,1.432553e-16,64.597649,1.91007e-16,1.812207e-16,0,0,0,0,0,0
1.593121,-2.581313,-10.545108,1.891618e-12,0,0,1.891618e-12,2.220446e-16,2.220446e-16,4.903543e-17,0,0,0,0,2.7108e-16,1.730092e-16,4.903543e-17,90,6.538057e-17,1.58489e-16,0,0,0,0,0,0
1.640411,-2.581313,-10.602774,1.891618e-12,0,0,1.891618e-12,-2.220446e-16,-3.330669e-16,-1.710386e-19,0,0,0,0,-2.220443e-16,-3.330672e-16,5.551142e-17,44.911732,7.401522e-17,1.95825e-16,0,0,0,0,0,0
1.687701,-2.581313,-10.655986,1.891618e-12,0,0,1.891618e-12,-2.220446e-16,0,-9.968963e-17,0,0,0,0,3.818887e-17,-2.602335e-16,1.492112e-16,-24.03928,1.989482e-16,1.875193e-16,0,0,0,0,0,0
1.734992,-2.581313,-10.705631,1.891618e-12,0,0,1.891618e-12,0,-2.220446e-16,-6.123068e-17,0,0,0,0,1.57655e-17,-2.378101e-16,1.267878e-16,30.561262,1.690504e-16,1.64048e-16,0,0,0,0,0,0
1.782282,-2.581313,-10.750829,1.891618e-12,0,0,1.891618e-12,2.220446e-16,-3.330669e-16,1.003699e-16,0,0,0,0,2.396351e-16,-3.506574e-16,2.951462e-16,54.940517,3.935283e-16,3.428089e-16,0,0,0,0,0,0
1.829573,-2.581313,-10.789999,1.891618e-12,0,0,1.891618e-12,0,-2.220446e-16,-5.126781e-17,0,0,0,0,1.126564e-17,-2.333102e-16,1.222879e-16,32.606739,1.630506e-16,1.594281e-16,0,0,0,0,0,0
1.876863,-2.581313,-10.823287,1.891618e-12,0,0,1.891618e-12,-1.110223e-16,0,-2.067924e-17,0,0,0,0,3.726665e-18,-1.14749e-16,5.923782e-17,-34.784214,7.898376e-17,7.77713e-17,0,0,0,0,0,0
1.924154,-2.581313,-10.853477,1.891618e-12,0,0,1.891618e-12,2.220446e-16,0,-4.255987e-17,0,0,0,0,2.299226e-16,-7.87805e-18,1.189004e-16,34.512959,1.585338e-16,1.559741e-16,0,0,0,0,0,0
1.971444,-2.581313,-10.881073,1.891618e-12,0,0,1.891618e-12,2.220446e-16,-2.220446e-16,-3.387849e-17,0,0,0,0,2.246142e-16,-2.246142e-16,2.246142e-16,40.662495,2.994857e-16,2.593622e-16,0,0,0,0,0,0
2.018735,-2.581313,-10.905358,1.891618e-12,0,0,1.891618e-12,2.220446e-16,2.220446e-16,-2.471313e-17,0,0,0,0,2.467577e-16,1.973315e-16,2.471313e-17,0,3.295085e-17,1.507552e-16,0,0,0,0,0,0
2.066025,-2.581313,-10.925048,1.891618e-12,0,0,1.891618e-12,2.220446e-16,-2.220446e-16,5.798308e-17,0,0,0,0,2.294904e-16,-2.294904e-16,2.294904e-16,52.31749,3.059872e-16,2.649927e-16,0,0,0,0,0,0
2.113316,-2.581313,-10.941132,1.891618e-12,0,0,1.891618e-12,-1.110223e-16,2.220446e-16,8.419872e-18,0,0,0,0,2.222573e-16,-1.11235e-16,1.667462e-16,-46.447193,2.223282e-16,1.960661e-16,0,0,0,0,0,0
2.160606,-2.581313,-10.954864,1.891618e-12,0,0,1.891618e-12,-3.330669e-16,2.220446e-16,9.094687e-17,0,0,0,0,2.365651e-16,-3.475874e-16,2.920762e-16,-54.071224,3.89435e-16,3.392849e-16,0,0,0,0,0,0
2.207896,-2.581313,-10.967175,1.891618e-12,0,0,1.891618e-12,0,-2.220446e-16,-3.281077e-17,0,0,0,0,4.746858e-18,-2.267915e-16,1.157692e-16,36.767921,1.543589e-16,1.528012e-16,0,0,0,0,0,0
2.255187,-2.581313,-10.977712,1.891618e-12,0,0,1.891618e-12,0,0,-3.157214e-17,0,0,0,0,3.157214e-17,-3.157214e-17,3.157214e-17,0,4.209619e-17,3.645637e-17,0,0,0,0,0,0
2.302477,-2.581313,-10.986022,1.891618e-12,0,0,1.891618e-12,0,-2.220446e-16,1.831569e-17,0,0,0,0,1.500657e-18,-2.235453e-16,1.12523e-16,49.683941,1.500306e-16,1.495329e-16,0,0,0,0,0,0
2.349768,-2.581313,-10.991739,1.891618e-12,0,0,1.891618e-12,0,2.220446e-16,-3.159697e-18,0,0,0,0,2.220896e-16,-4.495343e-20,1.110673e-16,-44.184902,1.480897e-16,1.480747e-16,0,0,0,0,0,0
2.397058,-2.581313,-10.996774,1.891618e-12,0,0,1.891618e-12,-3.330669e-16,2.220446e-16,-2.849045e-17,0,0,0,0,2.23503e-16,-3.345253e-16,2.790142e-16,-42.069626,3.720189e-16,3.242963e-16,0,0,0,0,0,0
2.444349,-2.581313,-11.000552,1.891618e-12,0,0,1.891618e-12,0,4.440892e-16,2.474215e-17,0,0,0,0,4.454635e-16,-1.37424e-18,2.234188e-16,-48.179085,2.978918e-16,2.974348e-16,0,0,0,0,0,0
2.491639,-2.581313,-11.001712,1.891618e-12,0,0,1.891618e-12,-1.110223e-16,6.661338e-16,4.367334e-17,0,0,0,0,6.685804e-16,-1.134689e-16,3.910246e-16,-48.206356,5.213662e-16,4.879609e-16,0,0,0,0,0,0
2.53893,-2.581313,-10.999272,1.891618e-12,0,0,1.891618e-12,0,4.440892e-16,1.836196e-17,0,0,0,0,4.448471e-16,-7.579268e-19,2.228025e-16,-47.363655,2.9707e-16,2.968177e-16,0,0,0,0,0,0
2.58622,-2.581313,-10.994798,1.891618e-12,0,0,1.891618e-12,0,-3.330669e-16,4.543482e-17,0,0,0,0,6.086689e-18,-3.391536e-16,1.726201e-16,52.630219,2.301602e-16,2.281584e-16,0,0,0,0,0,0
2.633511,-2.581313,-10.990451,1.891618e-12,0,0,1.891618e-12,0,0,4.347355e-18,0,0,0,0,4.347355e-18,-4.347355e-18,4.347355e-18,90,5.796474e-18,5.019894e-18,0,0,0,0,0,0
2.680801,-2.581313,-10.987338,1.891618e-12,0,0,1.891618e-12,-1.110223e-16,6.661338e-16,8.320775e-17,0,0,0,0,6.749427e-16,-1.198313e-16,3.97387e-16,-51.043221,5.298493e-16,4.947666e-16,0,0,0,0,0,0
2.728091,-2.581313,-10.984226,1.891618e-12,0,0,1.891618e-12,-1.110223e-16,-2.220446e-16,5.772363e-18,0,0,0,0,-1.10723e-16,-2.223439e-16,5.581046e-17,47.9683,7.441396e-17,1.283707e-16,0,0,0,0,0,0
2.775382,-2.581313,-10.979305,1.891618e-12,0,0,1.891618e-12,0,-3.330669e-16,-5.367887e-18,0,0,0,0,8.648933e-20,-3.331534e-16,1.666199e-16,44.076908,2.221599e-16,2.221311e-16,0,0,0,0,0,0
2.822672,-2.581313,-10.972867,1.891618e-12,0,0,1.891618e-12,0,2.220446e-16,-4.063318e-17,0,0,0,0,2.292467e-16,-7.20209e-18,1.182244e-16,-34.94891,1.576325e-16,1.552875e-16,0,0,0,0,0,0
2.869963,-2.581313,-10.966703,1.891618e-12,0,0,1.891618e-12,2.220446e-16,4.440892e-16,-2.105647e-17,0,0,0,0,4.460684e-16,2.200655e-16,1.130014e-16,-39.630421,1.506686e-16,2.575453e-16,0,0,0,0,0,0
2.917253,-2.581313,-10.950478,1.891618e-12,0,0,1.891618e-12,-2.220446e-16,-2.220446e-16,7.195107e-17,0,0,0,0,-1.500935e-16,-2.939957e-16,7.195107e-17,90,9.593476e-17,1.69751e-16,0,0,0,0,0,0
